[TITLE]
;;Project Title/Notes

[OPTIONS]
;;Option             Value
FLOW_UNITS           LPS
INFILTRATION         HORTON
FLOW_ROUTING         DYNWAVE
LINK_OFFSETS         DEPTH
MIN_SLOPE            0
ALLOW_PONDING        NO
SKIP_STEADY_STATE    NO

START_DATE           01/04/2025
START_TIME           00:00:00
REPORT_START_DATE    01/04/2025
REPORT_START_TIME    00:00:05
END_DATE             01/04/2025
END_TIME             3:00:00
SWEEP_START          1/1
SWEEP_END            12/31
DRY_DAYS             0
REPORT_STEP          0:03:00
WET_STEP             0:03:00
DRY_STEP             0:03:00
ROUTING_STEP         0:00:05
RULE_STEP            00:00:00

INERTIAL_DAMPING     PARTIAL
NORMAL_FLOW_LIMITED  BOTH
FORCE_MAIN_EQUATION  D-W
VARIABLE_STEP        0.75
LENGTHENING_STEP     0
MIN_SURFAREA         0
MAX_TRIALS           0
HEAD_TOLERANCE       0
SYS_FLOW_TOL         5
LAT_FLOW_TOL         5
MINIMUM_STEP         0.5
THREADS              1

[EVAPORATION]
;;Data Source    Parameters
;;-------------- ----------------
CONSTANT         0.0
DRY_ONLY         NO

[JUNCTIONS]
;;ID      Elevation MaxDepth  InitDepth SurDepth  Aponded   
;;------- --------- --------- --------- --------- ---------
1C        2560.530  1.400     0         0         0         
2C        2557.500  1.400     0         0         0         
2I        2557.500  1.400     0         0         0         
3C        2555.910  1.500     0         0         0         
3I        2556.010  1.400     0         0         0         
4C        2555.620  1.800     0         0         0         
4I        2556.020  1.400     0         0         0         
5C        2554.470  1.400     0         0         0         
6C        2553.550  1.400     0         0         0         
7C        2567.160  1.400     0         0         0         
8C        2561.710  1.400     0         0         0         
9C        2556.530  1.400     0         0         0         
10C       2555.630  1.700     0         0         0         
11C       2555.100  1.800     0         0         0         
12C       2554.620  2.100     0         0         0         
13C       2554.320  2.300     0         0         0         
13I       2555.220  1.400     0         0         0         
14C       2554.070  1.800     0         0         0         
15C       2553.780  2.000     0         0         0         
16C       2553.470  1.900     0         0         0         
16I       2553.970  1.400     0         0         0         
17C       2553.130  1.800     0         0         0         
18C       2552.450  1.400     0         0         0         
19I       2568.630  1.400     0         0         0         
19Ib      2568.630  1.400     0         0         0         
20C       2563.450  1.400     0         0         0         
20I       2563.450  1.400     0         0         0         
21C       2558.290  1.400     0         0         0         
22C       2557.300  1.400     0         0         0         
22I       2557.300  1.400     0         0         0         
23C       2555.940  1.400     0         0         0         
23I       2555.940  1.400     0         0         0         
24C       2555.300  1.700     0         0         0         
25C       2552.280  2.100     0         0         0         
26C       2571.600  1.400     0         0         0         
27C       2566.650  1.400     0         0         0         
28C       2564.310  1.400     0         0         0         
28I       2564.310  1.400     0         0         0         
29C       2561.480  1.400     0         0         0         
30C       2559.430  1.500     0         0         0         
31C       2557.910  1.500     0         0         0         
31I       2558.010  1.400     0         0         0         
32C       2556.400  1.500     0         0         0         
33C       2555.570  1.600     0         0         0         
34I       2555.740  1.400     0         0         0         
34Ib      2555.740  1.400     0         0         0         
35C       2554.710  1.400     0         0         0         
36C       2554.290  1.400     0         0         0         
37I       2554.440  1.400     0         0         0         
37Ib      2554.440  1.400     0         0         0         
38C       2553.650  1.600     0         0         0         
39C       2552.790  1.900     0         0         0         
40C       2552.490  2.100     0         0         0         
40I       2553.190  1.400     0         0         0         
41C       2552.190  2.100     0         0         0         
42C       2562.930  1.400     0         0         0         
43C       2557.570  1.400     0         0         0         
43I       2557.570  1.400     0         0         0         
44C       2556.000  1.400     0         0         0         
45C       2555.460  1.500     0         0         0         
46C       2555.050  1.400     0         0         0         
46I       2555.050  1.400     0         0         0         
47C       2554.530  1.400     0         0         0         
47I       2554.530  1.400     0         0         0         
48C       2553.770  1.700     0         0         0         
49C       2553.260  1.700     0         0         0         
50C       2552.860  1.900     0         0         0         
50I       2553.360  1.400     0         0         0         
51C       2552.230  2.000     0         0         0         
52C       2551.850  2.000     0         0         0         
53C       2551.540  2.200     0         0         0         
54I       2574.490  1.400     0         0         0         
54Ib      2574.490  1.400     0         0         0         
55C       2568.310  1.400     0         0         0         
56C       2565.580  1.400     0         0         0         
56I       2565.580  1.400     0         0         0         
57C       2564.090  1.400     0         0         0         
57I       2564.090  1.400     0         0         0         
58C       2563.230  1.400     0         0         0         
58I       2563.230  1.400     0         0         0         
59C       2560.840  1.400     0         0         0         
59I       2560.840  1.400     0         0         0         
60C       2559.100  1.400     0         0         0         
60I       2559.100  1.400     0         0         0         
61C       2556.740  1.400     0         0         0         
62C       2556.300  1.400     0         0         0         
62I       2556.300  1.400     0         0         0         
63C       2555.610  1.400     0         0         0         
63I       2555.610  1.400     0         0         0         
64C       2554.890  1.400     0         0         0         
64I       2554.890  1.400     0         0         0         
65C       2554.170  1.400     0         0         0         
65I       2554.170  1.400     0         0         0         
66C       2553.640  1.400     0         0         0         
66I       2553.640  1.400     0         0         0         
67C       2553.180  1.700     0         0         0         
68C       2553.250  1.400     0         0         0         
69C       2551.160  2.400     0         0         0         
70C       2574.190  1.900     0         0         0         
71C       2568.750  1.400     0         0         0         
71I       2568.750  1.400     0         0         0         
72C       2566.300  1.400     0         0         0         
72I       2566.300  1.400     0         0         0         
73C       2564.440  1.500     0         0         0         
73I       2564.540  1.400     0         0         0         
74C       2562.190  1.500     0         0         0         
75C       2559.540  1.500     0         0         0         
75I       2559.640  1.400     0         0         0         
76C       2557.440  1.600     0         0         0         
76I       2557.640  1.400     0         0         0         
77C       2556.390  1.600     0         0         0         
77I       2556.590  1.400     0         0         0         
78C       2555.570  1.700     0         0         0         
79C       2554.220  1.600     0         0         0         
80C       2553.730  1.700     0         0         0         
81C       2553.410  1.900     0         0         0         
81I       2553.910  1.400     0         0         0         
81Ib      2553.910  1.400     0         0         0         
82C       2553.560  1.400     0         0         0         
82I       2553.560  1.400     0         0         0         
82Ib      2553.560  1.400     0         0         0         
83C       2552.390  1.700     0         0         0         
83I       2552.690  1.400     0         0         0         
84C       2550.830  3.300     0         0         0         
84I       2552.730  1.400     0         0         0         
85C       2550.360  3.000     0         0         0         
86C       2571.630  1.400     0         0         0         
86I       2571.630  1.400     0         0         0         
87C       2564.750  1.400     0         0         0         
87I       2564.750  1.400     0         0         0         
88C       2560.560  1.400     0         0         0         
89C       2558.460  1.400     0         0         0         
90C       2557.310  1.400     0         0         0         
90I       2557.310  1.400     0         0         0         
91C       2555.020  1.400     0         0         0         
91I       2555.020  1.400     0         0         0         
91Ib      2555.020  1.400     0         0         0         
92C       2553.570  1.700     0         0         0         
93C       2553.110  1.400     0         0         0         
94C       2552.410  1.500     0         0         0         
94I       2552.510  1.400     0         0         0         
95C       2549.950  3.100     0         0         0         
96I       2573.780  1.400     0         0         0         
96Ib      2573.780  1.400     0         0         0         
97C       2567.860  1.400     0         0         0         
97I       2567.860  1.400     0         0         0         
98C       2563.090  1.400     0         0         0         
98I       2563.090  1.400     0         0         0         
99C       2559.380  1.400     0         0         0         
99I       2559.380  1.400     0         0         0         
100C      2558.600  1.400     0         0         0         
100I      2558.600  1.400     0         0         0         
101C      2556.600  1.400     0         0         0         
102C      2553.930  1.400     0         0         0         
103C      2553.110  1.700     0         0         0         
104C      2552.430  1.800     0         0         0         
105C      2550.550  1.500     0         0         0         
106C      2550.120  1.600     0         0         0         
107C      2549.530  2.100     0         0         0         
108C      2548.860  2.600     0         0         0         

[OUTFALLS]
;;Name    Elevation      Type      Stage Data     Gated     Route To  
;;------- -------------- --------- -------------- --------- ---------
109C      2547.850       FREE                     NO        

[CONDUITS]
;;Name    FromNode  ToNode    Length    Roughness InOffset  OutOffset InitFlow  MaxFlow   
;;------- --------- --------- --------- --------- --------- --------- --------- ---------
T1        2I        9C        84.563    0.0082    0.000     0.000     5.50000   0         
T2        3I        4C        174.365   0.0082    0.000     0.000     22.00000  0         
T3        4C        5C        199.277   0.0082    0.000     0.000     22.00000  0         
T4        5C        6C        154.332   0.0082    0.000     0.000     38.00000  0         
T5        6C        18C       115.310   0.0082    0.000     0.000     50.00000  0         
T6        18C       25C       84.247    0.0082    0.000     0.000     59.00000  0         
T7        25C       41C       73.084    0.0082    0.000     0.000     68.00000  0         
T8        41C       52C       92.742    0.0082    0.000     0.200     84.00000  0         
T9        4I        13C       97.169    0.0082    0.000     0.800     21.00000  0         
T10       13I       35C       94.145    0.0082    0.000     0.000     4.25000   0         
T11       16I       38C       89.917    0.0082    0.000     0.000     3.25000   0         
T12       38C       49C       119.956   0.0082    0.000     0.000     12.25000  0         
T13       19I       7C        62.157    0.0082    0.000     0.000     8.25000   0         
T14       7C        8C        151.446   0.0082    0.000     0.000     19.25000  0         
T15       19Ib      20C       155.135   0.0082    0.000     0.000     2.75000   0         
T16       20I       8C        60.978    0.0082    0.000     0.000     20.00000  0         
T17       8C        1C        94.537    0.0082    0.000     0.000     54.25000  0         
T18       1C        2C        185.452   0.0082    0.000     0.000     66.25000  0         
T19       2C        3C        218.320   0.0082    0.000     0.000     82.75000  0         
T20       3C        11C       79.621    0.0082    0.000     0.300     82.75000  0         
T21       22I       9C        78.884    0.0082    0.000     0.000     19.00000  0         
T22       9C        10C       106.601   0.0082    0.000     0.300     37.50000  0         
T23       23I       10C       70.507    0.0082    0.000     0.000     3.25000   0         
T24       10C       11C       99.825    0.0082    0.000     0.300     53.75000  0         
T25       28I       20C       75.142    0.0082    0.000     0.000     5.00000   0         
T26       20C       21C       79.856    0.0082    0.000     0.000     7.75000   0         
T27       21C       22C       128.459   0.0082    0.000     0.000     17.75000  0         
T28       31I       22C       75.404    0.0082    0.000     0.000     5.25000   0         
T29       22C       23C       86.513    0.0082    0.000     0.000     23.00000  0         
T30       23C       24C       100.093   0.0082    0.000     0.200     32.75000  0         
T31       13C       14C       71.888    0.0082    0.000     0.000     514.75000 0         
T32       34I       12C       122.032   0.0082    0.000     0.700     6.75000   0         
T33       34Ib      45C       88.834    0.0082    0.000     0.000     2.25000   0         
T34       45C       46C       64.011    0.0082    0.000     0.000     19.50000  0         
T35       37I       15C       89.696    0.0082    0.000     0.300     6.75000   0         
T36       37Ib      48C       120.022   0.0082    0.000     0.300     2.25000   0         
T37       40I       41C       93.465    0.0082    0.000     0.700     3.00000   0         
T38       43I       32C       71.961    0.0082    0.000     0.100     3.25000   0         
T39       46I       35C       115.375   0.0082    0.000     0.000     18.00000  0         
T40       35C       36C       71.558    0.0082    0.000     0.000     36.25000  0         
T41       47I       36C       117.200   0.0082    0.000     0.000     18.00000  0         
T42       36C       14C       92.976    0.0082    0.000     0.000     68.25000  0         
T43       50I       39C       91.651    0.0082    0.000     0.200     4.25000   0         
T44       40C       51C       91.165    0.0082    0.000     0.000     660.75000 0         
T45       51C       52C       93.348    0.0082    0.000     0.000     1113.500000         
T46       54I       26C       167.640   0.0082    0.000     0.000     3.00000   0         
T47       26C       27C       71.893    0.0082    0.000     0.000     15.00000  0         
T48       54Ib      70C       74.697    0.0082    0.000     0.000     9.00000   0         
T49       70C       71C       58.921    0.0082    0.000     0.000     18.00000  0         
T50       56I       28C       168.305   0.0082    0.000     0.000     4.00000   0         
T51       57I       58C       64.210    0.0082    0.000     0.000     17.00000  0         
T52       58C       30C       178.814   0.0082    0.000     0.100     23.00000  0         
T53       58I       59C       87.235    0.0082    0.000     0.000     2.00000   0         
T54       59C       31C       178.633   0.0082    0.000     0.100     14.00000  0         
T55       59I       60C       67.833    0.0082    0.000     0.000     4.00000   0         
T56       60I       43C       106.912   0.0082    0.000     0.000     18.00000  0         
T57       43C       44C       98.876    0.0082    0.000     0.000     27.75000  0         
T58       62I       63C       63.626    0.0082    0.000     0.000     13.00000  0         
T59       63C       64C       80.437    0.0082    0.000     0.000     22.75000  0         
T60       64C       65C       71.423    0.0082    0.000     0.000     32.50000  0         
T61       65C       66C       71.433    0.0082    0.000     0.000     42.25000  0         
T62       66C       67C       71.393    0.0082    0.000     0.200     52.00000  0         
T63       63I       46C       91.454    0.0082    0.000     0.000     3.25000   0         
T64       64I       47C       99.992    0.0082    0.000     0.000     3.25000   0         
T65       65I       48C       100.196   0.0082    0.000     0.000     3.25000   0         
T66       48C       49C       71.380    0.0082    0.000     0.200     49.50000  0         
T67       66I       49C       100.291   0.0082    0.000     0.000     3.25000   0         
T68       49C       50C       71.534    0.0082    0.000     0.200     83.00000  0         
T69       71I       55C       76.601    0.0082    0.000     0.000     4.25000   0         
T70       55C       27C       174.231   0.0082    0.000     0.000     16.25000  0         
T71       27C       28C       72.370    0.0082    0.000     0.000     47.25000  0         
T72       28C       29C       74.798    0.0082    0.000     0.000     66.25000  0         
T73       72I       56C       76.643    0.0082    0.000     0.000     3.25000   0         
T74       56C       57C       77.647    0.0082    0.000     0.000     15.25000  0         
T75       73I       57C       75.835    0.0082    0.000     0.000     4.50000   0         
T76       57C       42C       74.508    0.0082    0.000     0.000     19.75000  0         
T77       42C       29C       99.837    0.0082    0.000     0.000     28.75000  0         
T78       29C       30C       68.103    0.0082    0.000     0.000     108.00000 0         
T79       30C       31C       80.845    0.0082    0.000     0.000     135.00000 0         
T80       31C       32C       74.424    0.0082    0.000     0.000     164.75000 0         
T81       32C       33C       94.706    0.0082    0.000     0.000     181.00000 0         
T82       75I       60C       71.351    0.0082    0.000     0.000     4.00000   0         
T83       60C       61C       98.884    0.0082    0.000     0.000     8.00000   0         
T84       76I       61C       74.733    0.0082    0.000     0.000     4.25000   0         
T85       61C       44C       100.568   0.0082    0.000     0.000     25.25000  0         
T86       44C       33C       77.453    0.0082    0.000     0.000     66.00000  0         
T87       33C       24C       74.329    0.0082    0.000     0.000     260.00000 0         
T88       24C       11C       70.295    0.0082    0.000     0.000     305.75000 0         
T89       11C       12C       103.540   0.0082    0.000     0.000     460.25000 0         
T90       12C       13C       70.349    0.0082    0.000     0.000     481.00000 0         
T91       14C       15C       71.367    0.0082    0.000     0.000     596.00000 0         
T92       15C       16C       71.494    0.0082    0.000     0.000     615.75000 0         
T93       16C       17C       71.181    0.0082    0.000     0.000     625.50000 0         
T94       17C       39C       116.036   0.0082    0.000     0.000     634.50000 0         
T95       39C       40C       92.298    0.0082    0.000     0.000     651.75000 0         
T96       77I       62C       75.000    0.0082    0.000     0.000     4.25000   0         
T97       62C       45C       100.887   0.0082    0.000     0.100     4.25000   0         
T98       46C       47C       71.575    0.0082    0.000     0.000     22.75000  0         
T99       47C       48C       71.550    0.0082    0.000     0.300     26.00000  0         
T100      81I       82C       90.876    0.0082    0.000     0.000     4.25000   0         
T101      82C       83C       93.152    0.0082    0.000     0.300     12.25000  0         
T102      81Ib      92C       84.779    0.0082    0.000     0.000     12.75000  0         
T103      92C       103C      95.844    0.0082    0.000     0.200     44.75000  0         
T104      82I       68C       69.955    0.0082    0.000     0.000     4.00000   0         
T105      68C       51C       101.013   0.0082    0.000     0.600     13.00000  0         
T106      82Ib      93C       89.977    0.0082    0.000     0.000     4.00000   0         
T107      93C       104C      96.663    0.0082    0.000     0.300     12.00000  0         
T108      83I       94C       79.342    0.0082    0.000     0.000     5.00000   0         
T109      94C       105C      103.084   0.0082    0.000     0.100     17.75000  0         
T110      84I       83C       88.134    0.0082    0.000     0.000     3.25000   0         
T111      83C       52C       173.448   0.0082    0.000     0.300     30.50000  0         
T112      86I       71C       85.974    0.0082    0.000     0.000     16.00000  0         
T113      71C       72C       93.694    0.0082    0.000     0.000     46.75000  0         
T114      72C       73C       97.072    0.0082    0.000     0.100     56.50000  0         
T115      87I       73C       90.759    0.0082    0.000     0.000     26.00000  0         
T116      73C       74C       118.787   0.0082    0.000     0.000     96.00000  0         
T117      74C       75C       87.191    0.0082    0.000     0.000     105.00000 0         
T118      75C       76C       99.972    0.0082    0.000     0.000     148.00000 0         
T119      76C       77C       99.035    0.0082    0.000     0.000     208.75000 0         
T120      90I       77C       80.046    0.0082    0.000     0.200     4.25000   0         
T121      91I       79C       79.944    0.0082    0.000     0.200     6.25000   0         
T122      91Ib      102C      100.747   0.0082    0.000     0.000     18.75000  0         
T123      94I       95C       186.590   0.0082    0.000     1.500     4.25000   0         
T124      96I       86C       100.947   0.0082    0.000     0.000     3.25000   0         
T125      86C       87C       191.595   0.0082    0.000     0.000     4.25000   0         
T126      96Ib      97C       186.732   0.0082    0.000     0.000     9.75000   0         
T127      97C       98C       197.594   0.0082    0.000     0.000     25.50000  0         
T128      98C       99C       106.144   0.0082    0.000     0.000     39.00000  0         
T129      99C       89C       99.864    0.0082    0.000     0.000     39.00000  0         
T130      89C       76C       82.180    0.0082    0.000     0.200     48.00000  0         
T131      97I       87C       95.205    0.0082    0.000     0.000     5.25000   0         
T132      87C       88C       204.064   0.0082    0.000     0.000     9.50000   0         
T133      98I       88C       95.782    0.0082    0.000     0.000     4.50000   0         
T134      88C       75C       87.876    0.0082    0.000     0.100     31.00000  0         
T135      77C       78C       87.297    0.0082    0.000     0.000     225.75000 0         
T136      78C       79C       99.942    0.0082    0.000     0.000     233.75000 0         
T137      79C       80C       83.760    0.0082    0.000     0.000     253.00000 0         
T138      80C       81C       85.237    0.0082    0.000     0.000     262.00000 0         
T139      81C       67C       75.124    0.0082    0.000     0.000     262.00000 0         
T140      67C       50C       100.150   0.0082    0.000     0.000     327.00000 0         
T141      50C       51C       92.123    0.0082    0.000     0.200     422.75000 0         
T142      52C       53C       76.176    0.0082    0.000     0.000     1248.000000         
T143      53C       69C       91.601    0.0082    0.000     0.000     1256.000000         
T144      69C       84C       84.259    0.0082    0.000     0.000     1264.000000         
T145      84C       85C       98.394    0.0082    0.000     0.000     1273.750000         
T146      85C       95C       83.592    0.0082    0.000     0.000     1282.750000         
T147      95C       107C      97.009    0.0082    0.000     0.000     1304.000000         
T148      107C      108C      80.977    0.0082    0.000     0.000     1508.000000         
T149      99I       100C      94.939    0.0082    0.000     0.000     13.00000  0         
T150      100C      101C      99.494    0.0082    0.000     0.000     22.75000  0         
T151      101C      102C      87.605    0.0082    0.000     0.000     30.75000  0         
T152      102C      103C      172.584   0.0082    0.000     0.000     65.50000  0         
T153      103C      104C      101.025   0.0082    0.000     0.000     126.25000 0         
T154      104C      105C      90.370    0.0082    0.000     0.000     151.25000 0         
T155      100I      90C       99.358    0.0082    0.000     0.000     3.25000   0         
T156      90C       91C       187.372   0.0082    0.000     0.000     16.00000  0         
T157      91C       92C       169.137   0.0082    0.000     0.300     16.00000  0         
T158      105C      106C      79.143    0.0082    0.000     0.000     182.00000 0         
T159      106C      107C      101.904   0.0082    0.000     0.200     191.00000 0         
T160      108C      109C      92.369    0.0082    0.000     0.000     1525.000000         

[XSECTIONS]
;;Link    Shape          Geom1     Geom2     Geom3     Geom4     Barrels   Culvert   
;;------- -------------- --------- --------- --------- --------- --------- ---------
T1        CIRCULAR       0.200     0         0         0         1         
T2        CIRCULAR       0.200     0         0         0         1         
T3        CIRCULAR       0.200     0         0         0         1         
T4        CIRCULAR       0.200     0         0         0         1         
T5        CIRCULAR       0.200     0         0         0         1         
T6        CIRCULAR       0.300     0         0         0         1         
T7        CIRCULAR       0.350     0         0         0         1         
T8        CIRCULAR       0.350     0         0         0         1         
T9        CIRCULAR       0.200     0         0         0         1         
T10       CIRCULAR       0.200     0         0         0         1         
T11       CIRCULAR       0.200     0         0         0         1         
T12       CIRCULAR       0.200     0         0         0         1         
T13       CIRCULAR       0.200     0         0         0         1         
T14       CIRCULAR       0.200     0         0         0         1         
T15       CIRCULAR       0.200     0         0         0         1         
T16       CIRCULAR       0.200     0         0         0         1         
T17       CIRCULAR       0.200     0         0         0         1         
T18       CIRCULAR       0.200     0         0         0         1         
T19       CIRCULAR       0.250     0         0         0         1         
T20       CIRCULAR       0.300     0         0         0         1         
T21       CIRCULAR       0.200     0         0         0         1         
T22       CIRCULAR       0.200     0         0         0         1         
T23       CIRCULAR       0.200     0         0         0         1         
T24       CIRCULAR       0.300     0         0         0         1         
T25       CIRCULAR       0.200     0         0         0         1         
T26       CIRCULAR       0.200     0         0         0         1         
T27       CIRCULAR       0.200     0         0         0         1         
T28       CIRCULAR       0.200     0         0         0         1         
T29       CIRCULAR       0.200     0         0         0         1         
T30       CIRCULAR       0.200     0         0         0         1         
T31       CIRCULAR       0.600     0         0         0         1         
T32       CIRCULAR       0.200     0         0         0         1         
T33       CIRCULAR       0.200     0         0         0         1         
T34       CIRCULAR       0.200     0         0         0         1         
T35       CIRCULAR       0.200     0         0         0         1         
T36       CIRCULAR       0.200     0         0         0         1         
T37       CIRCULAR       0.200     0         0         0         1         
T38       CIRCULAR       0.200     0         0         0         1         
T39       CIRCULAR       0.200     0         0         0         1         
T40       CIRCULAR       0.200     0         0         0         1         
T41       CIRCULAR       0.200     0         0         0         1         
T42       CIRCULAR       0.300     0         0         0         1         
T43       CIRCULAR       0.200     0         0         0         1         
T44       CIRCULAR       0.700     0         0         0         1         
T45       CIRCULAR       0.800     0         0         0         1         
T46       CIRCULAR       0.200     0         0         0         1         
T47       CIRCULAR       0.200     0         0         0         1         
T48       CIRCULAR       0.200     0         0         0         1         
T49       CIRCULAR       0.200     0         0         0         1         
T50       CIRCULAR       0.200     0         0         0         1         
T51       CIRCULAR       0.200     0         0         0         1         
T52       CIRCULAR       0.200     0         0         0         1         
T53       CIRCULAR       0.200     0         0         0         1         
T54       CIRCULAR       0.200     0         0         0         1         
T55       CIRCULAR       0.200     0         0         0         1         
T56       CIRCULAR       0.200     0         0         0         1         
T57       CIRCULAR       0.200     0         0         0         1         
T58       CIRCULAR       0.200     0         0         0         1         
T59       CIRCULAR       0.200     0         0         0         1         
T60       CIRCULAR       0.200     0         0         0         1         
T61       CIRCULAR       0.200     0         0         0         1         
T62       CIRCULAR       0.250     0         0         0         1         
T63       CIRCULAR       0.200     0         0         0         1         
T64       CIRCULAR       0.200     0         0         0         1         
T65       CIRCULAR       0.200     0         0         0         1         
T66       CIRCULAR       0.250     0         0         0         1         
T67       CIRCULAR       0.200     0         0         0         1         
T68       CIRCULAR       0.350     0         0         0         1         
T69       CIRCULAR       0.200     0         0         0         1         
T70       CIRCULAR       0.200     0         0         0         1         
T71       CIRCULAR       0.200     0         0         0         1         
T72       CIRCULAR       0.200     0         0         0         1         
T73       CIRCULAR       0.200     0         0         0         1         
T74       CIRCULAR       0.200     0         0         0         1         
T75       CIRCULAR       0.200     0         0         0         1         
T76       CIRCULAR       0.200     0         0         0         1         
T77       CIRCULAR       0.200     0         0         0         1         
T78       CIRCULAR       0.250     0         0         0         1         
T79       CIRCULAR       0.250     0         0         0         1         
T80       CIRCULAR       0.300     0         0         0         1         
T81       CIRCULAR       0.350     0         0         0         1         
T82       CIRCULAR       0.200     0         0         0         1         
T83       CIRCULAR       0.200     0         0         0         1         
T84       CIRCULAR       0.200     0         0         0         1         
T85       CIRCULAR       0.200     0         0         0         1         
T86       CIRCULAR       0.250     0         0         0         1         
T87       CIRCULAR       0.450     0         0         0         1         
T88       CIRCULAR       0.500     0         0         0         1         
T89       CIRCULAR       0.530     0         0         0         1         
T90       CIRCULAR       0.600     0         0         0         1         
T91       CIRCULAR       0.600     0         0         0         1         
T92       CIRCULAR       0.600     0         0         0         1         
T93       CIRCULAR       0.600     0         0         0         1         
T94       CIRCULAR       0.700     0         0         0         1         
T95       CIRCULAR       0.700     0         0         0         1         
T96       CIRCULAR       0.200     0         0         0         1         
T97       CIRCULAR       0.200     0         0         0         1         
T98       CIRCULAR       0.200     0         0         0         1         
T99       CIRCULAR       0.200     0         0         0         1         
T100      CIRCULAR       0.200     0         0         0         1         
T101      CIRCULAR       0.200     0         0         0         1         
T102      CIRCULAR       0.200     0         0         0         1         
T103      CIRCULAR       0.250     0         0         0         1         
T104      CIRCULAR       0.200     0         0         0         1         
T105      CIRCULAR       0.200     0         0         0         1         
T106      CIRCULAR       0.200     0         0         0         1         
T107      CIRCULAR       0.200     0         0         0         1         
T108      CIRCULAR       0.200     0         0         0         1         
T109      CIRCULAR       0.200     0         0         0         1         
T110      CIRCULAR       0.200     0         0         0         1         
T111      CIRCULAR       0.250     0         0         0         1         
T112      CIRCULAR       0.200     0         0         0         1         
T113      CIRCULAR       0.200     0         0         0         1         
T114      CIRCULAR       0.200     0         0         0         1         
T115      CIRCULAR       0.200     0         0         0         1         
T116      CIRCULAR       0.250     0         0         0         1         
T117      CIRCULAR       0.250     0         0         0         1         
T118      CIRCULAR       0.250     0         0         0         1         
T119      CIRCULAR       0.350     0         0         0         1         
T120      CIRCULAR       0.200     0         0         0         1         
T121      CIRCULAR       0.200     0         0         0         1         
T122      CIRCULAR       0.200     0         0         0         1         
T123      CIRCULAR       0.200     0         0         0         1         
T124      CIRCULAR       0.200     0         0         0         1         
T125      CIRCULAR       0.200     0         0         0         1         
T126      CIRCULAR       0.200     0         0         0         1         
T127      CIRCULAR       0.200     0         0         0         1         
T128      CIRCULAR       0.200     0         0         0         1         
T129      CIRCULAR       0.200     0         0         0         1         
T130      CIRCULAR       0.200     0         0         0         1         
T131      CIRCULAR       0.200     0         0         0         1         
T132      CIRCULAR       0.200     0         0         0         1         
T133      CIRCULAR       0.200     0         0         0         1         
T134      CIRCULAR       0.200     0         0         0         1         
T135      CIRCULAR       0.350     0         0         0         1         
T136      CIRCULAR       0.350     0         0         0         1         
T137      CIRCULAR       0.400     0         0         0         1         
T138      CIRCULAR       0.450     0         0         0         1         
T139      CIRCULAR       0.500     0         0         0         1         
T140      CIRCULAR       0.500     0         0         0         1         
T141      CIRCULAR       0.530     0         0         0         1         
T142      CIRCULAR       0.800     0         0         0         1         
T143      CIRCULAR       0.800     0         0         0         1         
T144      CIRCULAR       0.800     0         0         0         1         
T145      CIRCULAR       0.800     0         0         0         1         
T146      CIRCULAR       0.800     0         0         0         1         
T147      CIRCULAR       0.800     0         0         0         1         
T148      CIRCULAR       0.800     0         0         0         1         
T149      CIRCULAR       0.200     0         0         0         1         
T150      CIRCULAR       0.200     0         0         0         1         
T151      CIRCULAR       0.200     0         0         0         1         
T152      CIRCULAR       0.250     0         0         0         1         
T153      CIRCULAR       0.300     0         0         0         1         
T154      CIRCULAR       0.300     0         0         0         1         
T155      CIRCULAR       0.200     0         0         0         1         
T156      CIRCULAR       0.200     0         0         0         1         
T157      CIRCULAR       0.200     0         0         0         1         
T158      CIRCULAR       0.380     0         0         0         1         
T159      CIRCULAR       0.400     0         0         0         1         
T160      CIRCULAR       0.700     0         0         0         1         

[INFLOWS]
;;Node    Constituent    Time Series    Type      Mfactor   Sfactor   Baseline  Pattern   
;;------- -------------- -------------- --------- --------- --------- --------- ---------
1C        FLOW           1C             FLOW      1         1         0.00000   
2C        FLOW           2C             FLOW      1         1         0.00000   
2I        FLOW           2I             FLOW      1         1         0.00000   
3C        FLOW           3C             FLOW      1         1         0.00000   
3I        FLOW           3I             FLOW      1         1         0.00000   
4C        FLOW           4C             FLOW      1         1         0.00000   
4I        FLOW           4I             FLOW      1         1         0.00000   
5C        FLOW           5C             FLOW      1         1         0.00000   
6C        FLOW           6C             FLOW      1         1         0.00000   
7C        FLOW           7C             FLOW      1         1         0.00000   
8C        FLOW           8C             FLOW      1         1         0.00000   
9C        FLOW           9C             FLOW      1         1         0.00000   
10C       FLOW           10C            FLOW      1         1         0.00000   
11C       FLOW           11C            FLOW      1         1         0.00000   
12C       FLOW           12C            FLOW      1         1         0.00000   
13C       FLOW           13C            FLOW      1         1         0.00000   
13I       FLOW           13I            FLOW      1         1         0.00000   
14C       FLOW           14C            FLOW      1         1         0.00000   
15C       FLOW           15C            FLOW      1         1         0.00000   
16C       FLOW           16C            FLOW      1         1         0.00000   
16I       FLOW           16I            FLOW      1         1         0.00000   
17C       FLOW           17C            FLOW      1         1         0.00000   
18C       FLOW           18C            FLOW      1         1         0.00000   
19I       FLOW           19I            FLOW      1         1         0.00000   
19Ib      FLOW           19Ib           FLOW      1         1         0.00000   
20C       FLOW           20C            FLOW      1         1         0.00000   
20I       FLOW           20I            FLOW      1         1         0.00000   
21C       FLOW           21C            FLOW      1         1         0.00000   
22C       FLOW           22C            FLOW      1         1         0.00000   
22I       FLOW           22I            FLOW      1         1         0.00000   
23C       FLOW           23C            FLOW      1         1         0.00000   
23I       FLOW           23I            FLOW      1         1         0.00000   
24C       FLOW           24C            FLOW      1         1         0.00000   
25C       FLOW           25C            FLOW      1         1         0.00000   
26C       FLOW           26C            FLOW      1         1         0.00000   
27C       FLOW           27C            FLOW      1         1         0.00000   
28C       FLOW           28C            FLOW      1         1         0.00000   
28I       FLOW           28I            FLOW      1         1         0.00000   
29C       FLOW           29C            FLOW      1         1         0.00000   
30C       FLOW           30C            FLOW      1         1         0.00000   
31C       FLOW           31C            FLOW      1         1         0.00000   
31I       FLOW           31I            FLOW      1         1         0.00000   
32C       FLOW           32C            FLOW      1         1         0.00000   
33C       FLOW           33C            FLOW      1         1         0.00000   
34I       FLOW           34I            FLOW      1         1         0.00000   
34Ib      FLOW           34Ib           FLOW      1         1         0.00000   
35C       FLOW           35C            FLOW      1         1         0.00000   
36C       FLOW           36C            FLOW      1         1         0.00000   
37I       FLOW           37I            FLOW      1         1         0.00000   
37Ib      FLOW           37Ib           FLOW      1         1         0.00000   
38C       FLOW           38C            FLOW      1         1         0.00000   
39C       FLOW           39C            FLOW      1         1         0.00000   
40C       FLOW           40C            FLOW      1         1         0.00000   
40I       FLOW           40I            FLOW      1         1         0.00000   
41C       FLOW           41C            FLOW      1         1         0.00000   
42C       FLOW           42C            FLOW      1         1         0.00000   
43C       FLOW           43C            FLOW      1         1         0.00000   
43I       FLOW           43I            FLOW      1         1         0.00000   
44C       FLOW           44C            FLOW      1         1         0.00000   
45C       FLOW           45C            FLOW      1         1         0.00000   
46C       FLOW           46C            FLOW      1         1         0.00000   
46I       FLOW           46I            FLOW      1         1         0.00000   
47C       FLOW           47C            FLOW      1         1         0.00000   
47I       FLOW           47I            FLOW      1         1         0.00000   
48C       FLOW           48C            FLOW      1         1         0.00000   
49C       FLOW           49C            FLOW      1         1         0.00000   
50C       FLOW           50C            FLOW      1         1         0.00000   
50I       FLOW           50I            FLOW      1         1         0.00000   
51C       FLOW           51C            FLOW      1         1         0.00000   
52C       FLOW           52C            FLOW      1         1         0.00000   
53C       FLOW           53C            FLOW      1         1         0.00000   
54I       FLOW           54I            FLOW      1         1         0.00000   
54Ib      FLOW           54Ib           FLOW      1         1         0.00000   
55C       FLOW           55C            FLOW      1         1         0.00000   
56C       FLOW           56C            FLOW      1         1         0.00000   
56I       FLOW           56I            FLOW      1         1         0.00000   
57C       FLOW           57C            FLOW      1         1         0.00000   
57I       FLOW           57I            FLOW      1         1         0.00000   
58C       FLOW           58C            FLOW      1         1         0.00000   
58I       FLOW           58I            FLOW      1         1         0.00000   
59C       FLOW           59C            FLOW      1         1         0.00000   
59I       FLOW           59I            FLOW      1         1         0.00000   
60C       FLOW           60C            FLOW      1         1         0.00000   
60I       FLOW           60I            FLOW      1         1         0.00000   
61C       FLOW           61C            FLOW      1         1         0.00000   
62C       FLOW           62C            FLOW      1         1         0.00000   
62I       FLOW           62I            FLOW      1         1         0.00000   
63C       FLOW           63C            FLOW      1         1         0.00000   
63I       FLOW           63I            FLOW      1         1         0.00000   
64C       FLOW           64C            FLOW      1         1         0.00000   
64I       FLOW           64I            FLOW      1         1         0.00000   
65C       FLOW           65C            FLOW      1         1         0.00000   
65I       FLOW           65I            FLOW      1         1         0.00000   
66C       FLOW           66C            FLOW      1         1         0.00000   
66I       FLOW           66I            FLOW      1         1         0.00000   
67C       FLOW           67C            FLOW      1         1         0.00000   
68C       FLOW           68C            FLOW      1         1         0.00000   
69C       FLOW           69C            FLOW      1         1         0.00000   
70C       FLOW           70C            FLOW      1         1         0.00000   
71C       FLOW           71C            FLOW      1         1         0.00000   
71I       FLOW           71I            FLOW      1         1         0.00000   
72C       FLOW           72C            FLOW      1         1         0.00000   
72I       FLOW           72I            FLOW      1         1         0.00000   
73C       FLOW           73C            FLOW      1         1         0.00000   
73I       FLOW           73I            FLOW      1         1         0.00000   
74C       FLOW           74C            FLOW      1         1         0.00000   
75C       FLOW           75C            FLOW      1         1         0.00000   
75I       FLOW           75I            FLOW      1         1         0.00000   
76C       FLOW           76C            FLOW      1         1         0.00000   
76I       FLOW           76I            FLOW      1         1         0.00000   
77C       FLOW           77C            FLOW      1         1         0.00000   
77I       FLOW           77I            FLOW      1         1         0.00000   
78C       FLOW           78C            FLOW      1         1         0.00000   
79C       FLOW           79C            FLOW      1         1         0.00000   
80C       FLOW           80C            FLOW      1         1         0.00000   
81C       FLOW           81C            FLOW      1         1         0.00000   
81I       FLOW           81I            FLOW      1         1         0.00000   
81Ib      FLOW           81Ib           FLOW      1         1         0.00000   
82C       FLOW           82C            FLOW      1         1         0.00000   
82I       FLOW           82I            FLOW      1         1         0.00000   
82Ib      FLOW           82Ib           FLOW      1         1         0.00000   
83C       FLOW           83C            FLOW      1         1         0.00000   
83I       FLOW           83I            FLOW      1         1         0.00000   
84C       FLOW           84C            FLOW      1         1         0.00000   
84I       FLOW           84I            FLOW      1         1         0.00000   
85C       FLOW           85C            FLOW      1         1         0.00000   
86C       FLOW           86C            FLOW      1         1         0.00000   
86I       FLOW           86I            FLOW      1         1         0.00000   
87C       FLOW           87C            FLOW      1         1         0.00000   
87I       FLOW           87I            FLOW      1         1         0.00000   
88C       FLOW           88C            FLOW      1         1         0.00000   
89C       FLOW           89C            FLOW      1         1         0.00000   
90C       FLOW           90C            FLOW      1         1         0.00000   
90I       FLOW           90I            FLOW      1         1         0.00000   
91C       FLOW           91C            FLOW      1         1         0.00000   
91I       FLOW           91I            FLOW      1         1         0.00000   
91Ib      FLOW           91Ib           FLOW      1         1         0.00000   
92C       FLOW           92C            FLOW      1         1         0.00000   
93C       FLOW           93C            FLOW      1         1         0.00000   
94C       FLOW           94C            FLOW      1         1         0.00000   
94I       FLOW           94I            FLOW      1         1         0.00000   
95C       FLOW           95C            FLOW      1         1         0.00000   
96I       FLOW           96I            FLOW      1         1         0.00000   
96Ib      FLOW           96Ib           FLOW      1         1         0.00000   
97C       FLOW           97C            FLOW      1         1         0.00000   
97I       FLOW           97I            FLOW      1         1         0.00000   
98C       FLOW           98C            FLOW      1         1         0.00000   
98I       FLOW           98I            FLOW      1         1         0.00000   
99C       FLOW           99C            FLOW      1         1         0.00000   
99I       FLOW           99I            FLOW      1         1         0.00000   
100C      FLOW           100C           FLOW      1         1         0.00000   
100I      FLOW           100I           FLOW      1         1         0.00000   
101C      FLOW           101C           FLOW      1         1         0.00000   
102C      FLOW           102C           FLOW      1         1         0.00000   
103C      FLOW           103C           FLOW      1         1         0.00000   
104C      FLOW           104C           FLOW      1         1         0.00000   
105C      FLOW           105C           FLOW      1         1         0.00000   
106C      FLOW           106C           FLOW      1         1         0.00000   
107C      FLOW           107C           FLOW      1         1         0.00000   
108C      FLOW           108C           FLOW      1         1         0.00000   

[TIMESERIES]
;;Name    Date      Time      Value     
;;------- --------- --------- ---------
1C                  0:00      1.200     
1C                  0:03      1.945     
1C                  0:06      3.784     
1C                  0:09      6.239     
1C                  0:12      8.966     
1C                  0:15      11.720    
1C                  0:18      14.332    
1C                  0:21      16.694    
1C                  0:24      18.743    
1C                  0:27      20.447    
1C                  0:30      21.799    
1C                  0:33      22.807    
1C                  0:36      23.491    
1C                  0:39      23.878    
1C                  0:42      24.000    
1C                  0:45      23.889    
1C                  0:48      23.579    
1C                  0:51      23.100    
1C                  0:54      22.484    
1C                  0:57      21.758    
1C                  1:00      20.946    
1C                  1:03      20.072    
1C                  1:06      19.155    
1C                  1:09      18.212    
1C                  1:12      17.258    
1C                  1:15      16.304    
1C                  1:18      15.362    
1C                  1:21      14.439    
1C                  1:24      13.543    
1C                  1:27      12.677    
1C                  1:30      11.848    
1C                  1:33      11.056    
1C                  1:36      10.304    
1C                  1:39      9.593     
1C                  1:42      8.923     
1C                  1:45      8.295     
1C                  1:48      7.707     
1C                  1:51      7.158     
1C                  1:54      6.648     
1C                  1:57      6.175     
1C                  2:00      5.736     
1C                  2:03      5.332     
1C                  2:06      4.958     
1C                  2:09      4.615     
1C                  2:12      4.300     
1C                  2:15      4.011     
1C                  2:18      3.746     
1C                  2:21      3.504     
1C                  2:24      3.283     
1C                  2:27      3.082     
1C                  2:30      2.899     
1C                  2:33      2.732     
1C                  2:36      2.581     
1C                  2:39      2.443     
1C                  2:42      2.319     
1C                  2:45      2.206     
1C                  2:48      2.104     
1C                  2:51      2.012     
1C                  2:54      1.929     
1C                  2:57      1.854     
1C                  3:00      1.786     
2C                  0:00      1.650     
2C                  0:03      2.675     
2C                  0:06      5.203     
2C                  0:09      8.579     
2C                  0:12      12.329    
2C                  0:15      16.114    
2C                  0:18      19.706    
2C                  0:21      22.955    
2C                  0:24      25.772    
2C                  0:27      28.115    
2C                  0:30      29.974    
2C                  0:33      31.359    
2C                  0:36      32.300    
2C                  0:39      32.832    
2C                  0:42      33.000    
2C                  0:45      32.848    
2C                  0:48      32.421    
2C                  0:51      31.763    
2C                  0:54      30.916    
2C                  0:57      29.917    
2C                  1:00      28.801    
2C                  1:03      27.599    
2C                  1:06      26.338    
2C                  1:09      25.042    
2C                  1:12      23.729    
2C                  1:15      22.418    
2C                  1:18      21.123    
2C                  1:21      19.854    
2C                  1:24      18.621    
2C                  1:27      17.431    
2C                  1:30      16.290    
2C                  1:33      15.202    
2C                  1:36      14.168    
2C                  1:39      13.190    
2C                  1:42      12.269    
2C                  1:45      11.405    
2C                  1:48      10.597    
2C                  1:51      9.843     
2C                  1:54      9.141     
2C                  1:57      8.490     
2C                  2:00      7.887     
2C                  2:03      7.331     
2C                  2:06      6.818     
2C                  2:09      6.346     
2C                  2:12      5.912     
2C                  2:15      5.515     
2C                  2:18      5.151     
2C                  2:21      4.818     
2C                  2:24      4.514     
2C                  2:27      4.238     
2C                  2:30      3.986     
2C                  2:33      3.757     
2C                  2:36      3.548     
2C                  2:39      3.360     
2C                  2:42      3.188     
2C                  2:45      3.034     
2C                  2:48      2.893     
2C                  2:51      2.767     
2C                  2:54      2.652     
2C                  2:57      2.549     
2C                  3:00      2.456     
2I                  0:00      0.550     
2I                  0:03      0.892     
2I                  0:06      1.734     
2I                  0:09      2.860     
2I                  0:12      4.110     
2I                  0:15      5.371     
2I                  0:18      6.569     
2I                  0:21      7.652     
2I                  0:24      8.591     
2I                  0:27      9.372     
2I                  0:30      9.991     
2I                  0:33      10.453    
2I                  0:36      10.767    
2I                  0:39      10.944    
2I                  0:42      11.000    
2I                  0:45      10.949    
2I                  0:48      10.807    
2I                  0:51      10.588    
2I                  0:54      10.305    
2I                  0:57      9.972     
2I                  1:00      9.600     
2I                  1:03      9.200     
2I                  1:06      8.779     
2I                  1:09      8.347     
2I                  1:12      7.910     
2I                  1:15      7.473     
2I                  1:18      7.041     
2I                  1:21      6.618     
2I                  1:24      6.207     
2I                  1:27      5.810     
2I                  1:30      5.430     
2I                  1:33      5.067     
2I                  1:36      4.723     
2I                  1:39      4.397     
2I                  1:42      4.090     
2I                  1:45      3.802     
2I                  1:48      3.532     
2I                  1:51      3.281     
2I                  1:54      3.047     
2I                  1:57      2.830     
2I                  2:00      2.629     
2I                  2:03      2.444     
2I                  2:06      2.273     
2I                  2:09      2.115     
2I                  2:12      1.971     
2I                  2:15      1.838     
2I                  2:18      1.717     
2I                  2:21      1.606     
2I                  2:24      1.505     
2I                  2:27      1.413     
2I                  2:30      1.329     
2I                  2:33      1.252     
2I                  2:36      1.183     
2I                  2:39      1.120     
2I                  2:42      1.063     
2I                  2:45      1.011     
2I                  2:48      0.964     
2I                  2:51      0.922     
2I                  2:54      0.884     
2I                  2:57      0.850     
2I                  3:00      0.819     
3C                  0:00      0.000     
3C                  0:03      0.000     
3C                  0:06      0.000     
3C                  0:09      0.000     
3C                  0:12      0.000     
3C                  0:15      0.000     
3C                  0:18      0.000     
3C                  0:21      0.000     
3C                  0:24      0.000     
3C                  0:27      0.000     
3C                  0:30      0.000     
3C                  0:33      0.000     
3C                  0:36      0.000     
3C                  0:39      0.000     
3C                  0:42      0.000     
3C                  0:45      0.000     
3C                  0:48      0.000     
3C                  0:51      0.000     
3C                  0:54      0.000     
3C                  0:57      0.000     
3C                  1:00      0.000     
3C                  1:03      0.000     
3C                  1:06      0.000     
3C                  1:09      0.000     
3C                  1:12      0.000     
3C                  1:15      0.000     
3C                  1:18      0.000     
3C                  1:21      0.000     
3C                  1:24      0.000     
3C                  1:27      0.000     
3C                  1:30      0.000     
3C                  1:33      0.000     
3C                  1:36      0.000     
3C                  1:39      0.000     
3C                  1:42      0.000     
3C                  1:45      0.000     
3C                  1:48      0.000     
3C                  1:51      0.000     
3C                  1:54      0.000     
3C                  1:57      0.000     
3C                  2:00      0.000     
3C                  2:03      0.000     
3C                  2:06      0.000     
3C                  2:09      0.000     
3C                  2:12      0.000     
3C                  2:15      0.000     
3C                  2:18      0.000     
3C                  2:21      0.000     
3C                  2:24      0.000     
3C                  2:27      0.000     
3C                  2:30      0.000     
3C                  2:33      0.000     
3C                  2:36      0.000     
3C                  2:39      0.000     
3C                  2:42      0.000     
3C                  2:45      0.000     
3C                  2:48      0.000     
3C                  2:51      0.000     
3C                  2:54      0.000     
3C                  2:57      0.000     
3C                  3:00      0.000     
3I                  0:00      2.200     
3I                  0:03      3.566     
3I                  0:06      6.937     
3I                  0:09      11.439    
3I                  0:12      16.438    
3I                  0:15      21.486    
3I                  0:18      26.275    
3I                  0:21      30.606    
3I                  0:24      34.363    
3I                  0:27      37.487    
3I                  0:30      39.965    
3I                  0:33      41.812    
3I                  0:36      43.066    
3I                  0:39      43.777    
3I                  0:42      44.000    
3I                  0:45      43.797    
3I                  0:48      43.228    
3I                  0:51      42.351    
3I                  0:54      41.221    
3I                  0:57      39.889    
3I                  1:00      38.402    
3I                  1:03      36.799    
3I                  1:06      35.118    
3I                  1:09      33.389    
3I                  1:12      31.639    
3I                  1:15      29.891    
3I                  1:18      28.163    
3I                  1:21      26.472    
3I                  1:24      24.828    
3I                  1:27      23.242    
3I                  1:30      21.720    
3I                  1:33      20.269    
3I                  1:36      18.890    
3I                  1:39      17.587    
3I                  1:42      16.359    
3I                  1:45      15.207    
3I                  1:48      14.129    
3I                  1:51      13.123    
3I                  1:54      12.188    
3I                  1:57      11.320    
3I                  2:00      10.517    
3I                  2:03      9.774     
3I                  2:06      9.090     
3I                  2:09      8.461     
3I                  2:12      7.883     
3I                  2:15      7.353     
3I                  2:18      6.868     
3I                  2:21      6.424     
3I                  2:24      6.019     
3I                  2:27      5.650     
3I                  2:30      5.314     
3I                  2:33      5.009     
3I                  2:36      4.731     
3I                  2:39      4.479     
3I                  2:42      4.251     
3I                  2:45      4.045     
3I                  2:48      3.858     
3I                  2:51      3.689     
3I                  2:54      3.536     
3I                  2:57      3.399     
3I                  3:00      3.275     
4C                  0:00      0.000     
4C                  0:03      0.000     
4C                  0:06      0.000     
4C                  0:09      0.000     
4C                  0:12      0.000     
4C                  0:15      0.000     
4C                  0:18      0.000     
4C                  0:21      0.000     
4C                  0:24      0.000     
4C                  0:27      0.000     
4C                  0:30      0.000     
4C                  0:33      0.000     
4C                  0:36      0.000     
4C                  0:39      0.000     
4C                  0:42      0.000     
4C                  0:45      0.000     
4C                  0:48      0.000     
4C                  0:51      0.000     
4C                  0:54      0.000     
4C                  0:57      0.000     
4C                  1:00      0.000     
4C                  1:03      0.000     
4C                  1:06      0.000     
4C                  1:09      0.000     
4C                  1:12      0.000     
4C                  1:15      0.000     
4C                  1:18      0.000     
4C                  1:21      0.000     
4C                  1:24      0.000     
4C                  1:27      0.000     
4C                  1:30      0.000     
4C                  1:33      0.000     
4C                  1:36      0.000     
4C                  1:39      0.000     
4C                  1:42      0.000     
4C                  1:45      0.000     
4C                  1:48      0.000     
4C                  1:51      0.000     
4C                  1:54      0.000     
4C                  1:57      0.000     
4C                  2:00      0.000     
4C                  2:03      0.000     
4C                  2:06      0.000     
4C                  2:09      0.000     
4C                  2:12      0.000     
4C                  2:15      0.000     
4C                  2:18      0.000     
4C                  2:21      0.000     
4C                  2:24      0.000     
4C                  2:27      0.000     
4C                  2:30      0.000     
4C                  2:33      0.000     
4C                  2:36      0.000     
4C                  2:39      0.000     
4C                  2:42      0.000     
4C                  2:45      0.000     
4C                  2:48      0.000     
4C                  2:51      0.000     
4C                  2:54      0.000     
4C                  2:57      0.000     
4C                  3:00      0.000     
4I                  0:00      2.100     
4I                  0:03      3.404     
4I                  0:06      6.621     
4I                  0:09      10.919    
4I                  0:12      15.691    
4I                  0:15      20.509    
4I                  0:18      25.080    
4I                  0:21      29.215    
4I                  0:24      32.801    
4I                  0:27      35.783    
4I                  0:30      38.148    
4I                  0:33      39.912    
4I                  0:36      41.109    
4I                  0:39      41.787    
4I                  0:42      42.000    
4I                  0:45      41.806    
4I                  0:48      41.263    
4I                  0:51      40.426    
4I                  0:54      39.347    
4I                  0:57      38.076    
4I                  1:00      36.656    
4I                  1:03      35.126    
4I                  1:06      33.521    
4I                  1:09      31.871    
4I                  1:12      30.201    
4I                  1:15      28.532    
4I                  1:18      26.883    
4I                  1:21      25.268    
4I                  1:24      23.700    
4I                  1:27      22.185    
4I                  1:30      20.733    
4I                  1:33      19.347    
4I                  1:36      18.032    
4I                  1:39      16.787    
4I                  1:42      15.616    
4I                  1:45      14.516    
4I                  1:48      13.487    
4I                  1:51      12.527    
4I                  1:54      11.634    
4I                  1:57      10.806    
4I                  2:00      10.039    
4I                  2:03      9.330     
4I                  2:06      8.677     
4I                  2:09      8.076     
4I                  2:12      7.525     
4I                  2:15      7.019     
4I                  2:18      6.555     
4I                  2:21      6.132     
4I                  2:24      5.746     
4I                  2:27      5.393     
4I                  2:30      5.073     
4I                  2:33      4.781     
4I                  2:36      4.516     
4I                  2:39      4.276     
4I                  2:42      4.058     
4I                  2:45      3.861     
4I                  2:48      3.682     
4I                  2:51      3.521     
4I                  2:54      3.376     
4I                  2:57      3.244     
4I                  3:00      3.126     
5C                  0:00      1.600     
5C                  0:03      2.593     
5C                  0:06      5.045     
5C                  0:09      8.319     
5C                  0:12      11.955    
5C                  0:15      15.626    
5C                  0:18      19.109    
5C                  0:21      22.259    
5C                  0:24      24.991    
5C                  0:27      27.263    
5C                  0:30      29.065    
5C                  0:33      30.409    
5C                  0:36      31.321    
5C                  0:39      31.838    
5C                  0:42      32.000    
5C                  0:45      31.852    
5C                  0:48      31.438    
5C                  0:51      30.800    
5C                  0:54      29.979    
5C                  0:57      29.010    
5C                  1:00      27.928    
5C                  1:03      26.763    
5C                  1:06      25.540    
5C                  1:09      24.283    
5C                  1:12      23.010    
5C                  1:15      21.739    
5C                  1:18      20.482    
5C                  1:21      19.252    
5C                  1:24      18.057    
5C                  1:27      16.903    
5C                  1:30      15.797    
5C                  1:33      14.741    
5C                  1:36      13.738    
5C                  1:39      12.790    
5C                  1:42      11.898    
5C                  1:45      11.060    
5C                  1:48      10.276    
5C                  1:51      9.544     
5C                  1:54      8.864     
5C                  1:57      8.233     
5C                  2:00      7.648     
5C                  2:03      7.109     
5C                  2:06      6.611     
5C                  2:09      6.153     
5C                  2:12      5.733     
5C                  2:15      5.347     
5C                  2:18      4.995     
5C                  2:21      4.672     
5C                  2:24      4.378     
5C                  2:27      4.109     
5C                  2:30      3.865     
5C                  2:33      3.643     
5C                  2:36      3.441     
5C                  2:39      3.258     
5C                  2:42      3.092     
5C                  2:45      2.942     
5C                  2:48      2.806     
5C                  2:51      2.683     
5C                  2:54      2.572     
5C                  2:57      2.472     
5C                  3:00      2.382     
6C                  0:00      1.200     
6C                  0:03      1.945     
6C                  0:06      3.784     
6C                  0:09      6.239     
6C                  0:12      8.966     
6C                  0:15      11.720    
6C                  0:18      14.332    
6C                  0:21      16.694    
6C                  0:24      18.743    
6C                  0:27      20.447    
6C                  0:30      21.799    
6C                  0:33      22.807    
6C                  0:36      23.491    
6C                  0:39      23.878    
6C                  0:42      24.000    
6C                  0:45      23.889    
6C                  0:48      23.579    
6C                  0:51      23.100    
6C                  0:54      22.484    
6C                  0:57      21.758    
6C                  1:00      20.946    
6C                  1:03      20.072    
6C                  1:06      19.155    
6C                  1:09      18.212    
6C                  1:12      17.258    
6C                  1:15      16.304    
6C                  1:18      15.362    
6C                  1:21      14.439    
6C                  1:24      13.543    
6C                  1:27      12.677    
6C                  1:30      11.848    
6C                  1:33      11.056    
6C                  1:36      10.304    
6C                  1:39      9.593     
6C                  1:42      8.923     
6C                  1:45      8.295     
6C                  1:48      7.707     
6C                  1:51      7.158     
6C                  1:54      6.648     
6C                  1:57      6.175     
6C                  2:00      5.736     
6C                  2:03      5.332     
6C                  2:06      4.958     
6C                  2:09      4.615     
6C                  2:12      4.300     
6C                  2:15      4.011     
6C                  2:18      3.746     
6C                  2:21      3.504     
6C                  2:24      3.283     
6C                  2:27      3.082     
6C                  2:30      2.899     
6C                  2:33      2.732     
6C                  2:36      2.581     
6C                  2:39      2.443     
6C                  2:42      2.319     
6C                  2:45      2.206     
6C                  2:48      2.104     
6C                  2:51      2.012     
6C                  2:54      1.929     
6C                  2:57      1.854     
6C                  3:00      1.786     
7C                  0:00      1.100     
7C                  0:03      1.783     
7C                  0:06      3.468     
7C                  0:09      5.720     
7C                  0:12      8.219     
7C                  0:15      10.743    
7C                  0:18      13.137    
7C                  0:21      15.303    
7C                  0:24      17.181    
7C                  0:27      18.744    
7C                  0:30      19.982    
7C                  0:33      20.906    
7C                  0:36      21.533    
7C                  0:39      21.888    
7C                  0:42      22.000    
7C                  0:45      21.898    
7C                  0:48      21.614    
7C                  0:51      21.175    
7C                  0:54      20.610    
7C                  0:57      19.945    
7C                  1:00      19.201    
7C                  1:03      18.400    
7C                  1:06      17.559    
7C                  1:09      16.694    
7C                  1:12      15.819    
7C                  1:15      14.945    
7C                  1:18      14.082    
7C                  1:21      13.236    
7C                  1:24      12.414    
7C                  1:27      11.621    
7C                  1:30      10.860    
7C                  1:33      10.134    
7C                  1:36      9.445     
7C                  1:39      8.793     
7C                  1:42      8.180     
7C                  1:45      7.603     
7C                  1:48      7.064     
7C                  1:51      6.562     
7C                  1:54      6.094     
7C                  1:57      5.660     
7C                  2:00      5.258     
7C                  2:03      4.887     
7C                  2:06      4.545     
7C                  2:09      4.230     
7C                  2:12      3.941     
7C                  2:15      3.676     
7C                  2:18      3.434     
7C                  2:21      3.212     
7C                  2:24      3.010     
7C                  2:27      2.825     
7C                  2:30      2.657     
7C                  2:33      2.504     
7C                  2:36      2.366     
7C                  2:39      2.240     
7C                  2:42      2.126     
7C                  2:45      2.022     
7C                  2:48      1.929     
7C                  2:51      1.844     
7C                  2:54      1.768     
7C                  2:57      1.699     
7C                  3:00      1.637     
8C                  0:00      1.500     
8C                  0:03      2.431     
8C                  0:06      4.730     
8C                  0:09      7.799     
8C                  0:12      11.208    
8C                  0:15      14.649    
8C                  0:18      17.915    
8C                  0:21      20.868    
8C                  0:24      23.429    
8C                  0:27      25.559    
8C                  0:30      27.249    
8C                  0:33      28.508    
8C                  0:36      29.363    
8C                  0:39      29.848    
8C                  0:42      30.000    
8C                  0:45      29.862    
8C                  0:48      29.473    
8C                  0:51      28.875    
8C                  0:54      28.105    
8C                  0:57      27.197    
8C                  1:00      26.183    
8C                  1:03      25.090    
8C                  1:06      23.944    
8C                  1:09      22.765    
8C                  1:12      21.572    
8C                  1:15      20.380    
8C                  1:18      19.202    
8C                  1:21      18.049    
8C                  1:24      16.928    
8C                  1:27      15.847    
8C                  1:30      14.809    
8C                  1:33      13.820    
8C                  1:36      12.880    
8C                  1:39      11.991    
8C                  1:42      11.154    
8C                  1:45      10.368    
8C                  1:48      9.633     
8C                  1:51      8.948     
8C                  1:54      8.310     
8C                  1:57      7.718     
8C                  2:00      7.170     
8C                  2:03      6.664     
8C                  2:06      6.198     
8C                  2:09      5.769     
8C                  2:12      5.375     
8C                  2:15      5.013     
8C                  2:18      4.682     
8C                  2:21      4.380     
8C                  2:24      4.104     
8C                  2:27      3.852     
8C                  2:30      3.623     
8C                  2:33      3.415     
8C                  2:36      3.226     
8C                  2:39      3.054     
8C                  2:42      2.899     
8C                  2:45      2.758     
8C                  2:48      2.630     
8C                  2:51      2.515     
8C                  2:54      2.411     
8C                  2:57      2.317     
8C                  3:00      2.233     
9C                  0:00      1.300     
9C                  0:03      2.107     
9C                  0:06      4.099     
9C                  0:09      6.759     
9C                  0:12      9.714     
9C                  0:15      12.696    
9C                  0:18      15.526    
9C                  0:21      18.085    
9C                  0:24      20.305    
9C                  0:27      22.151    
9C                  0:30      23.616    
9C                  0:33      24.707    
9C                  0:36      25.448    
9C                  0:39      25.868    
9C                  0:42      26.000    
9C                  0:45      25.880    
9C                  0:48      25.544    
9C                  0:51      25.025    
9C                  0:54      24.358    
9C                  0:57      23.571    
9C                  1:00      22.692    
9C                  1:03      21.745    
9C                  1:06      20.751    
9C                  1:09      19.730    
9C                  1:12      18.696    
9C                  1:15      17.663    
9C                  1:18      16.642    
9C                  1:21      15.642    
9C                  1:24      14.671    
9C                  1:27      13.734    
9C                  1:30      12.835    
9C                  1:33      11.977    
9C                  1:36      11.162    
9C                  1:39      10.392    
9C                  1:42      9.667     
9C                  1:45      8.986     
9C                  1:48      8.349     
9C                  1:51      7.755     
9C                  1:54      7.202     
9C                  1:57      6.689     
9C                  2:00      6.214     
9C                  2:03      5.776     
9C                  2:06      5.372     
9C                  2:09      5.000     
9C                  2:12      4.658     
9C                  2:15      4.345     
9C                  2:18      4.058     
9C                  2:21      3.796     
9C                  2:24      3.557     
9C                  2:27      3.339     
9C                  2:30      3.140     
9C                  2:33      2.960     
9C                  2:36      2.796     
9C                  2:39      2.647     
9C                  2:42      2.512     
9C                  2:45      2.390     
9C                  2:48      2.280     
9C                  2:51      2.180     
9C                  2:54      2.090     
9C                  2:57      2.008     
9C                  3:00      1.935     
10C                 0:00      1.300     
10C                 0:03      2.107     
10C                 0:06      4.099     
10C                 0:09      6.759     
10C                 0:12      9.714     
10C                 0:15      12.696    
10C                 0:18      15.526    
10C                 0:21      18.085    
10C                 0:24      20.305    
10C                 0:27      22.151    
10C                 0:30      23.616    
10C                 0:33      24.707    
10C                 0:36      25.448    
10C                 0:39      25.868    
10C                 0:42      26.000    
10C                 0:45      25.880    
10C                 0:48      25.544    
10C                 0:51      25.025    
10C                 0:54      24.358    
10C                 0:57      23.571    
10C                 1:00      22.692    
10C                 1:03      21.745    
10C                 1:06      20.751    
10C                 1:09      19.730    
10C                 1:12      18.696    
10C                 1:15      17.663    
10C                 1:18      16.642    
10C                 1:21      15.642    
10C                 1:24      14.671    
10C                 1:27      13.734    
10C                 1:30      12.835    
10C                 1:33      11.977    
10C                 1:36      11.162    
10C                 1:39      10.392    
10C                 1:42      9.667     
10C                 1:45      8.986     
10C                 1:48      8.349     
10C                 1:51      7.755     
10C                 1:54      7.202     
10C                 1:57      6.689     
10C                 2:00      6.214     
10C                 2:03      5.776     
10C                 2:06      5.372     
10C                 2:09      5.000     
10C                 2:12      4.658     
10C                 2:15      4.345     
10C                 2:18      4.058     
10C                 2:21      3.796     
10C                 2:24      3.557     
10C                 2:27      3.339     
10C                 2:30      3.140     
10C                 2:33      2.960     
10C                 2:36      2.796     
10C                 2:39      2.647     
10C                 2:42      2.512     
10C                 2:45      2.390     
10C                 2:48      2.280     
10C                 2:51      2.180     
10C                 2:54      2.090     
10C                 2:57      2.008     
10C                 3:00      1.935     
11C                 0:00      1.800     
11C                 0:03      2.918     
11C                 0:06      5.676     
11C                 0:09      9.359     
11C                 0:12      13.450    
11C                 0:15      17.579    
11C                 0:18      21.497    
11C                 0:21      25.041    
11C                 0:24      28.115    
11C                 0:27      30.671    
11C                 0:30      32.699    
11C                 0:33      34.210    
11C                 0:36      35.236    
11C                 0:39      35.817    
11C                 0:42      36.000    
11C                 0:45      35.834    
11C                 0:48      35.368    
11C                 0:51      34.650    
11C                 0:54      33.726    
11C                 0:57      32.637    
11C                 1:00      31.419    
11C                 1:03      30.108    
11C                 1:06      28.733    
11C                 1:09      27.318    
11C                 1:12      25.886    
11C                 1:15      24.456    
11C                 1:18      23.043    
11C                 1:21      21.659    
11C                 1:24      20.314    
11C                 1:27      19.016    
11C                 1:30      17.771    
11C                 1:33      16.584    
11C                 1:36      15.456    
11C                 1:39      14.389    
11C                 1:42      13.385    
11C                 1:45      12.442    
11C                 1:48      11.560    
11C                 1:51      10.737    
11C                 1:54      9.972     
11C                 1:57      9.262     
11C                 2:00      8.605     
11C                 2:03      7.997     
11C                 2:06      7.438     
11C                 2:09      6.923     
11C                 2:12      6.450     
11C                 2:15      6.016     
11C                 2:18      5.619     
11C                 2:21      5.256     
11C                 2:24      4.925     
11C                 2:27      4.623     
11C                 2:30      4.348     
11C                 2:33      4.098     
11C                 2:36      3.871     
11C                 2:39      3.665     
11C                 2:42      3.478     
11C                 2:45      3.309     
11C                 2:48      3.156     
11C                 2:51      3.018     
11C                 2:54      2.893     
11C                 2:57      2.781     
11C                 3:00      2.679     
12C                 0:00      1.400     
12C                 0:03      2.269     
12C                 0:06      4.414     
12C                 0:09      7.279     
12C                 0:12      10.461    
12C                 0:15      13.673    
12C                 0:18      16.720    
12C                 0:21      19.477    
12C                 0:24      21.867    
12C                 0:27      23.855    
12C                 0:30      25.432    
12C                 0:33      26.608    
12C                 0:36      27.406    
12C                 0:39      27.858    
12C                 0:42      28.000    
12C                 0:45      27.871    
12C                 0:48      27.508    
12C                 0:51      26.950    
12C                 0:54      26.231    
12C                 0:57      25.384    
12C                 1:00      24.437    
12C                 1:03      23.418    
12C                 1:06      22.348    
12C                 1:09      21.247    
12C                 1:12      20.134    
12C                 1:15      19.021    
12C                 1:18      17.922    
12C                 1:21      16.846    
12C                 1:24      15.800    
12C                 1:27      14.790    
12C                 1:30      13.822    
12C                 1:33      12.898    
12C                 1:36      12.021    
12C                 1:39      11.192    
12C                 1:42      10.410    
12C                 1:45      9.677     
12C                 1:48      8.991     
12C                 1:51      8.351     
12C                 1:54      7.756     
12C                 1:57      7.204     
12C                 2:00      6.692     
12C                 2:03      6.220     
12C                 2:06      5.785     
12C                 2:09      5.384     
12C                 2:12      5.016     
12C                 2:15      4.679     
12C                 2:18      4.370     
12C                 2:21      4.088     
12C                 2:24      3.830     
12C                 2:27      3.596     
12C                 2:30      3.382     
12C                 2:33      3.187     
12C                 2:36      3.011     
12C                 2:39      2.851     
12C                 2:42      2.705     
12C                 2:45      2.574     
12C                 2:48      2.455     
12C                 2:51      2.347     
12C                 2:54      2.250     
12C                 2:57      2.163     
12C                 3:00      2.084     
13C                 0:00      1.275     
13C                 0:03      2.067     
13C                 0:06      4.020     
13C                 0:09      6.629     
13C                 0:12      9.527     
13C                 0:15      12.452    
13C                 0:18      15.227    
13C                 0:21      17.738    
13C                 0:24      19.915    
13C                 0:27      21.725    
13C                 0:30      23.161    
13C                 0:33      24.232    
13C                 0:36      24.959    
13C                 0:39      25.371    
13C                 0:42      25.500    
13C                 0:45      25.382    
13C                 0:48      25.052    
13C                 0:51      24.544    
13C                 0:54      23.889    
13C                 0:57      23.118    
13C                 1:00      22.255    
13C                 1:03      21.327    
13C                 1:06      20.352    
13C                 1:09      19.350    
13C                 1:12      18.336    
13C                 1:15      17.323    
13C                 1:18      16.322    
13C                 1:21      15.342    
13C                 1:24      14.389    
13C                 1:27      13.470    
13C                 1:30      12.588    
13C                 1:33      11.747    
13C                 1:36      10.948    
13C                 1:39      10.192    
13C                 1:42      9.481     
13C                 1:45      8.813     
13C                 1:48      8.188     
13C                 1:51      7.606     
13C                 1:54      7.063     
13C                 1:57      6.560     
13C                 2:00      6.095     
13C                 2:03      5.665     
13C                 2:06      5.268     
13C                 2:09      4.903     
13C                 2:12      4.568     
13C                 2:15      4.261     
13C                 2:18      3.980     
13C                 2:21      3.723     
13C                 2:24      3.488     
13C                 2:27      3.275     
13C                 2:30      3.080     
13C                 2:33      2.903     
13C                 2:36      2.742     
13C                 2:39      2.596     
13C                 2:42      2.464     
13C                 2:45      2.344     
13C                 2:48      2.236     
13C                 2:51      2.138     
13C                 2:54      2.049     
13C                 2:57      1.970     
13C                 3:00      1.898     
13I                 0:00      0.425     
13I                 0:03      0.689     
13I                 0:06      1.340     
13I                 0:09      2.210     
13I                 0:12      3.176     
13I                 0:15      4.151     
13I                 0:18      5.076     
13I                 0:21      5.913     
13I                 0:24      6.638     
13I                 0:27      7.242     
13I                 0:30      7.720     
13I                 0:33      8.077     
13I                 0:36      8.320     
13I                 0:39      8.457     
13I                 0:42      8.500     
13I                 0:45      8.461     
13I                 0:48      8.351     
13I                 0:51      8.181     
13I                 0:54      7.963     
13I                 0:57      7.706     
13I                 1:00      7.418     
13I                 1:03      7.109     
13I                 1:06      6.784     
13I                 1:09      6.450     
13I                 1:12      6.112     
13I                 1:15      5.774     
13I                 1:18      5.441     
13I                 1:21      5.114     
13I                 1:24      4.796     
13I                 1:27      4.490     
13I                 1:30      4.196     
13I                 1:33      3.916     
13I                 1:36      3.649     
13I                 1:39      3.397     
13I                 1:42      3.160     
13I                 1:45      2.938     
13I                 1:48      2.729     
13I                 1:51      2.535     
13I                 1:54      2.354     
13I                 1:57      2.187     
13I                 2:00      2.032     
13I                 2:03      1.888     
13I                 2:06      1.756     
13I                 2:09      1.634     
13I                 2:12      1.523     
13I                 2:15      1.420     
13I                 2:18      1.327     
13I                 2:21      1.241     
13I                 2:24      1.163     
13I                 2:27      1.092     
13I                 2:30      1.027     
13I                 2:33      0.968     
13I                 2:36      0.914     
13I                 2:39      0.865     
13I                 2:42      0.821     
13I                 2:45      0.781     
13I                 2:48      0.745     
13I                 2:51      0.713     
13I                 2:54      0.683     
13I                 2:57      0.657     
13I                 3:00      0.633     
14C                 0:00      1.300     
14C                 0:03      2.107     
14C                 0:06      4.099     
14C                 0:09      6.759     
14C                 0:12      9.714     
14C                 0:15      12.696    
14C                 0:18      15.526    
14C                 0:21      18.085    
14C                 0:24      20.305    
14C                 0:27      22.151    
14C                 0:30      23.616    
14C                 0:33      24.707    
14C                 0:36      25.448    
14C                 0:39      25.868    
14C                 0:42      26.000    
14C                 0:45      25.880    
14C                 0:48      25.544    
14C                 0:51      25.025    
14C                 0:54      24.358    
14C                 0:57      23.571    
14C                 1:00      22.692    
14C                 1:03      21.745    
14C                 1:06      20.751    
14C                 1:09      19.730    
14C                 1:12      18.696    
14C                 1:15      17.663    
14C                 1:18      16.642    
14C                 1:21      15.642    
14C                 1:24      14.671    
14C                 1:27      13.734    
14C                 1:30      12.835    
14C                 1:33      11.977    
14C                 1:36      11.162    
14C                 1:39      10.392    
14C                 1:42      9.667     
14C                 1:45      8.986     
14C                 1:48      8.349     
14C                 1:51      7.755     
14C                 1:54      7.202     
14C                 1:57      6.689     
14C                 2:00      6.214     
14C                 2:03      5.776     
14C                 2:06      5.372     
14C                 2:09      5.000     
14C                 2:12      4.658     
14C                 2:15      4.345     
14C                 2:18      4.058     
14C                 2:21      3.796     
14C                 2:24      3.557     
14C                 2:27      3.339     
14C                 2:30      3.140     
14C                 2:33      2.960     
14C                 2:36      2.796     
14C                 2:39      2.647     
14C                 2:42      2.512     
14C                 2:45      2.390     
14C                 2:48      2.280     
14C                 2:51      2.180     
14C                 2:54      2.090     
14C                 2:57      2.008     
14C                 3:00      1.935     
15C                 0:00      1.300     
15C                 0:03      2.107     
15C                 0:06      4.099     
15C                 0:09      6.759     
15C                 0:12      9.714     
15C                 0:15      12.696    
15C                 0:18      15.526    
15C                 0:21      18.085    
15C                 0:24      20.305    
15C                 0:27      22.151    
15C                 0:30      23.616    
15C                 0:33      24.707    
15C                 0:36      25.448    
15C                 0:39      25.868    
15C                 0:42      26.000    
15C                 0:45      25.880    
15C                 0:48      25.544    
15C                 0:51      25.025    
15C                 0:54      24.358    
15C                 0:57      23.571    
15C                 1:00      22.692    
15C                 1:03      21.745    
15C                 1:06      20.751    
15C                 1:09      19.730    
15C                 1:12      18.696    
15C                 1:15      17.663    
15C                 1:18      16.642    
15C                 1:21      15.642    
15C                 1:24      14.671    
15C                 1:27      13.734    
15C                 1:30      12.835    
15C                 1:33      11.977    
15C                 1:36      11.162    
15C                 1:39      10.392    
15C                 1:42      9.667     
15C                 1:45      8.986     
15C                 1:48      8.349     
15C                 1:51      7.755     
15C                 1:54      7.202     
15C                 1:57      6.689     
15C                 2:00      6.214     
15C                 2:03      5.776     
15C                 2:06      5.372     
15C                 2:09      5.000     
15C                 2:12      4.658     
15C                 2:15      4.345     
15C                 2:18      4.058     
15C                 2:21      3.796     
15C                 2:24      3.557     
15C                 2:27      3.339     
15C                 2:30      3.140     
15C                 2:33      2.960     
15C                 2:36      2.796     
15C                 2:39      2.647     
15C                 2:42      2.512     
15C                 2:45      2.390     
15C                 2:48      2.280     
15C                 2:51      2.180     
15C                 2:54      2.090     
15C                 2:57      2.008     
15C                 3:00      1.935     
16C                 0:00      0.975     
16C                 0:03      1.580     
16C                 0:06      3.074     
16C                 0:09      5.070     
16C                 0:12      7.285     
16C                 0:15      9.522     
16C                 0:18      11.644    
16C                 0:21      13.564    
16C                 0:24      15.229    
16C                 0:27      16.614    
16C                 0:30      17.712    
16C                 0:33      18.531    
16C                 0:36      19.086    
16C                 0:39      19.401    
16C                 0:42      19.500    
16C                 0:45      19.410    
16C                 0:48      19.158    
16C                 0:51      18.769    
16C                 0:54      18.268    
16C                 0:57      17.678    
16C                 1:00      17.019    
16C                 1:03      16.309    
16C                 1:06      15.564    
16C                 1:09      14.797    
16C                 1:12      14.022    
16C                 1:15      13.247    
16C                 1:18      12.482    
16C                 1:21      11.732    
16C                 1:24      11.003    
16C                 1:27      10.300    
16C                 1:30      9.626     
16C                 1:33      8.983     
16C                 1:36      8.372     
16C                 1:39      7.794     
16C                 1:42      7.250     
16C                 1:45      6.739     
16C                 1:48      6.262     
16C                 1:51      5.816     
16C                 1:54      5.401     
16C                 1:57      5.017     
16C                 2:00      4.661     
16C                 2:03      4.332     
16C                 2:06      4.029     
16C                 2:09      3.750     
16C                 2:12      3.494     
16C                 2:15      3.259     
16C                 2:18      3.044     
16C                 2:21      2.847     
16C                 2:24      2.668     
16C                 2:27      2.504     
16C                 2:30      2.355     
16C                 2:33      2.220     
16C                 2:36      2.097     
16C                 2:39      1.985     
16C                 2:42      1.884     
16C                 2:45      1.793     
16C                 2:48      1.710     
16C                 2:51      1.635     
16C                 2:54      1.567     
16C                 2:57      1.506     
16C                 3:00      1.451     
16I                 0:00      0.325     
16I                 0:03      0.527     
16I                 0:06      1.025     
16I                 0:09      1.690     
16I                 0:12      2.428     
16I                 0:15      3.174     
16I                 0:18      3.881     
16I                 0:21      4.521     
16I                 0:24      5.076     
16I                 0:27      5.538     
16I                 0:30      5.904     
16I                 0:33      6.177     
16I                 0:36      6.362     
16I                 0:39      6.467     
16I                 0:42      6.500     
16I                 0:45      6.470     
16I                 0:48      6.386     
16I                 0:51      6.256     
16I                 0:54      6.089     
16I                 0:57      5.893     
16I                 1:00      5.673     
16I                 1:03      5.436     
16I                 1:06      5.188     
16I                 1:09      4.932     
16I                 1:12      4.674     
16I                 1:15      4.416     
16I                 1:18      4.161     
16I                 1:21      3.911     
16I                 1:24      3.668     
16I                 1:27      3.433     
16I                 1:30      3.209     
16I                 1:33      2.994     
16I                 1:36      2.791     
16I                 1:39      2.598     
16I                 1:42      2.417     
16I                 1:45      2.246     
16I                 1:48      2.087     
16I                 1:51      1.939     
16I                 1:54      1.800     
16I                 1:57      1.672     
16I                 2:00      1.554     
16I                 2:03      1.444     
16I                 2:06      1.343     
16I                 2:09      1.250     
16I                 2:12      1.165     
16I                 2:15      1.086     
16I                 2:18      1.015     
16I                 2:21      0.949     
16I                 2:24      0.889     
16I                 2:27      0.835     
16I                 2:30      0.785     
16I                 2:33      0.740     
16I                 2:36      0.699     
16I                 2:39      0.662     
16I                 2:42      0.628     
16I                 2:45      0.598     
16I                 2:48      0.570     
16I                 2:51      0.545     
16I                 2:54      0.522     
16I                 2:57      0.502     
16I                 3:00      0.484     
17C                 0:00      0.900     
17C                 0:03      1.459     
17C                 0:06      2.838     
17C                 0:09      4.680     
17C                 0:12      6.725     
17C                 0:15      8.790     
17C                 0:18      10.749    
17C                 0:21      12.521    
17C                 0:24      14.057    
17C                 0:27      15.336    
17C                 0:30      16.349    
17C                 0:33      17.105    
17C                 0:36      17.618    
17C                 0:39      17.909    
17C                 0:42      18.000    
17C                 0:45      17.917    
17C                 0:48      17.684    
17C                 0:51      17.325    
17C                 0:54      16.863    
17C                 0:57      16.318    
17C                 1:00      15.710    
17C                 1:03      15.054    
17C                 1:06      14.366    
17C                 1:09      13.659    
17C                 1:12      12.943    
17C                 1:15      12.228    
17C                 1:18      11.521    
17C                 1:21      10.829    
17C                 1:24      10.157    
17C                 1:27      9.508     
17C                 1:30      8.886     
17C                 1:33      8.292     
17C                 1:36      7.728     
17C                 1:39      7.195     
17C                 1:42      6.692     
17C                 1:45      6.221     
17C                 1:48      5.780     
17C                 1:51      5.369     
17C                 1:54      4.986     
17C                 1:57      4.631     
17C                 2:00      4.302     
17C                 2:03      3.999     
17C                 2:06      3.719     
17C                 2:09      3.461     
17C                 2:12      3.225     
17C                 2:15      3.008     
17C                 2:18      2.809     
17C                 2:21      2.628     
17C                 2:24      2.462     
17C                 2:27      2.311     
17C                 2:30      2.174     
17C                 2:33      2.049     
17C                 2:36      1.935     
17C                 2:39      1.833     
17C                 2:42      1.739     
17C                 2:45      1.655     
17C                 2:48      1.578     
17C                 2:51      1.509     
17C                 2:54      1.447     
17C                 2:57      1.390     
17C                 3:00      1.340     
18C                 0:00      0.900     
18C                 0:03      1.459     
18C                 0:06      2.838     
18C                 0:09      4.680     
18C                 0:12      6.725     
18C                 0:15      8.790     
18C                 0:18      10.749    
18C                 0:21      12.521    
18C                 0:24      14.057    
18C                 0:27      15.336    
18C                 0:30      16.349    
18C                 0:33      17.105    
18C                 0:36      17.618    
18C                 0:39      17.909    
18C                 0:42      18.000    
18C                 0:45      17.917    
18C                 0:48      17.684    
18C                 0:51      17.325    
18C                 0:54      16.863    
18C                 0:57      16.318    
18C                 1:00      15.710    
18C                 1:03      15.054    
18C                 1:06      14.366    
18C                 1:09      13.659    
18C                 1:12      12.943    
18C                 1:15      12.228    
18C                 1:18      11.521    
18C                 1:21      10.829    
18C                 1:24      10.157    
18C                 1:27      9.508     
18C                 1:30      8.886     
18C                 1:33      8.292     
18C                 1:36      7.728     
18C                 1:39      7.195     
18C                 1:42      6.692     
18C                 1:45      6.221     
18C                 1:48      5.780     
18C                 1:51      5.369     
18C                 1:54      4.986     
18C                 1:57      4.631     
18C                 2:00      4.302     
18C                 2:03      3.999     
18C                 2:06      3.719     
18C                 2:09      3.461     
18C                 2:12      3.225     
18C                 2:15      3.008     
18C                 2:18      2.809     
18C                 2:21      2.628     
18C                 2:24      2.462     
18C                 2:27      2.311     
18C                 2:30      2.174     
18C                 2:33      2.049     
18C                 2:36      1.935     
18C                 2:39      1.833     
18C                 2:42      1.739     
18C                 2:45      1.655     
18C                 2:48      1.578     
18C                 2:51      1.509     
18C                 2:54      1.447     
18C                 2:57      1.390     
18C                 3:00      1.340     
19I                 0:00      0.825     
19I                 0:03      1.337     
19I                 0:06      2.601     
19I                 0:09      4.290     
19I                 0:12      6.164     
19I                 0:15      8.057     
19I                 0:18      9.853     
19I                 0:21      11.477    
19I                 0:24      12.886    
19I                 0:27      14.058    
19I                 0:30      14.987    
19I                 0:33      15.680    
19I                 0:36      16.150    
19I                 0:39      16.416    
19I                 0:42      16.500    
19I                 0:45      16.424    
19I                 0:48      16.210    
19I                 0:51      15.881    
19I                 0:54      15.458    
19I                 0:57      14.958    
19I                 1:00      14.401    
19I                 1:03      13.800    
19I                 1:06      13.169    
19I                 1:09      12.521    
19I                 1:12      11.865    
19I                 1:15      11.209    
19I                 1:18      10.561    
19I                 1:21      9.927     
19I                 1:24      9.311     
19I                 1:27      8.716     
19I                 1:30      8.145     
19I                 1:33      7.601     
19I                 1:36      7.084     
19I                 1:39      6.595     
19I                 1:42      6.135     
19I                 1:45      5.703     
19I                 1:48      5.298     
19I                 1:51      4.921     
19I                 1:54      4.570     
19I                 1:57      4.245     
19I                 2:00      3.944     
19I                 2:03      3.665     
19I                 2:06      3.409     
19I                 2:09      3.173     
19I                 2:12      2.956     
19I                 2:15      2.757     
19I                 2:18      2.575     
19I                 2:21      2.409     
19I                 2:24      2.257     
19I                 2:27      2.119     
19I                 2:30      1.993     
19I                 2:33      1.878     
19I                 2:36      1.774     
19I                 2:39      1.680     
19I                 2:42      1.594     
19I                 2:45      1.517     
19I                 2:48      1.447     
19I                 2:51      1.383     
19I                 2:54      1.326     
19I                 2:57      1.275     
19I                 3:00      1.228     
19Ib                0:00      0.275     
19Ib                0:03      0.446     
19Ib                0:06      0.867     
19Ib                0:09      1.430     
19Ib                0:12      2.055     
19Ib                0:15      2.686     
19Ib                0:18      3.284     
19Ib                0:21      3.826     
19Ib                0:24      4.295     
19Ib                0:27      4.686     
19Ib                0:30      4.996     
19Ib                0:33      5.227     
19Ib                0:36      5.383     
19Ib                0:39      5.472     
19Ib                0:42      5.500     
19Ib                0:45      5.475     
19Ib                0:48      5.403     
19Ib                0:51      5.294     
19Ib                0:54      5.153     
19Ib                0:57      4.986     
19Ib                1:00      4.800     
19Ib                1:03      4.600     
19Ib                1:06      4.390     
19Ib                1:09      4.174     
19Ib                1:12      3.955     
19Ib                1:15      3.736     
19Ib                1:18      3.520     
19Ib                1:21      3.309     
19Ib                1:24      3.104     
19Ib                1:27      2.905     
19Ib                1:30      2.715     
19Ib                1:33      2.534     
19Ib                1:36      2.361     
19Ib                1:39      2.198     
19Ib                1:42      2.045     
19Ib                1:45      1.901     
19Ib                1:48      1.766     
19Ib                1:51      1.640     
19Ib                1:54      1.523     
19Ib                1:57      1.415     
19Ib                2:00      1.315     
19Ib                2:03      1.222     
19Ib                2:06      1.136     
19Ib                2:09      1.058     
19Ib                2:12      0.985     
19Ib                2:15      0.919     
19Ib                2:18      0.858     
19Ib                2:21      0.803     
19Ib                2:24      0.752     
19Ib                2:27      0.706     
19Ib                2:30      0.664     
19Ib                2:33      0.626     
19Ib                2:36      0.591     
19Ib                2:39      0.560     
19Ib                2:42      0.531     
19Ib                2:45      0.506     
19Ib                2:48      0.482     
19Ib                2:51      0.461     
19Ib                2:54      0.442     
19Ib                2:57      0.425     
19Ib                3:00      0.409     
20C                 0:00      0.000     
20C                 0:03      0.000     
20C                 0:06      0.000     
20C                 0:09      0.000     
20C                 0:12      0.000     
20C                 0:15      0.000     
20C                 0:18      0.000     
20C                 0:21      0.000     
20C                 0:24      0.000     
20C                 0:27      0.000     
20C                 0:30      0.000     
20C                 0:33      0.000     
20C                 0:36      0.000     
20C                 0:39      0.000     
20C                 0:42      0.000     
20C                 0:45      0.000     
20C                 0:48      0.000     
20C                 0:51      0.000     
20C                 0:54      0.000     
20C                 0:57      0.000     
20C                 1:00      0.000     
20C                 1:03      0.000     
20C                 1:06      0.000     
20C                 1:09      0.000     
20C                 1:12      0.000     
20C                 1:15      0.000     
20C                 1:18      0.000     
20C                 1:21      0.000     
20C                 1:24      0.000     
20C                 1:27      0.000     
20C                 1:30      0.000     
20C                 1:33      0.000     
20C                 1:36      0.000     
20C                 1:39      0.000     
20C                 1:42      0.000     
20C                 1:45      0.000     
20C                 1:48      0.000     
20C                 1:51      0.000     
20C                 1:54      0.000     
20C                 1:57      0.000     
20C                 2:00      0.000     
20C                 2:03      0.000     
20C                 2:06      0.000     
20C                 2:09      0.000     
20C                 2:12      0.000     
20C                 2:15      0.000     
20C                 2:18      0.000     
20C                 2:21      0.000     
20C                 2:24      0.000     
20C                 2:27      0.000     
20C                 2:30      0.000     
20C                 2:33      0.000     
20C                 2:36      0.000     
20C                 2:39      0.000     
20C                 2:42      0.000     
20C                 2:45      0.000     
20C                 2:48      0.000     
20C                 2:51      0.000     
20C                 2:54      0.000     
20C                 2:57      0.000     
20C                 3:00      0.000     
20I                 0:00      2.000     
20I                 0:03      3.242     
20I                 0:06      6.306     
20I                 0:09      10.399    
20I                 0:12      14.944    
20I                 0:15      19.533    
20I                 0:18      23.886    
20I                 0:21      27.824    
20I                 0:24      31.239    
20I                 0:27      34.079    
20I                 0:30      36.332    
20I                 0:33      38.011    
20I                 0:36      39.151    
20I                 0:39      39.797    
20I                 0:42      40.000    
20I                 0:45      39.815    
20I                 0:48      39.298    
20I                 0:51      38.501    
20I                 0:54      37.474    
20I                 0:57      36.263    
20I                 1:00      34.911    
20I                 1:03      33.454    
20I                 1:06      31.925    
20I                 1:09      30.353    
20I                 1:12      28.763    
20I                 1:15      27.174    
20I                 1:18      25.603    
20I                 1:21      24.065    
20I                 1:24      22.571    
20I                 1:27      21.129    
20I                 1:30      19.746    
20I                 1:33      18.426    
20I                 1:36      17.173    
20I                 1:39      15.988    
20I                 1:42      14.872    
20I                 1:45      13.824    
20I                 1:48      12.844    
20I                 1:51      11.930    
20I                 1:54      11.080    
20I                 1:57      10.291    
20I                 2:00      9.561     
20I                 2:03      8.886     
20I                 2:06      8.264     
20I                 2:09      7.692     
20I                 2:12      7.166     
20I                 2:15      6.684     
20I                 2:18      6.243     
20I                 2:21      5.840     
20I                 2:24      5.472     
20I                 2:27      5.137     
20I                 2:30      4.831     
20I                 2:33      4.553     
20I                 2:36      4.301     
20I                 2:39      4.072     
20I                 2:42      3.865     
20I                 2:45      3.677     
20I                 2:48      3.507     
20I                 2:51      3.354     
20I                 2:54      3.215     
20I                 2:57      3.090     
20I                 3:00      2.977     
21C                 0:00      1.000     
21C                 0:03      1.621     
21C                 0:06      3.153     
21C                 0:09      5.200     
21C                 0:12      7.472     
21C                 0:15      9.766     
21C                 0:18      11.943    
21C                 0:21      13.912    
21C                 0:24      15.619    
21C                 0:27      17.040    
21C                 0:30      18.166    
21C                 0:33      19.006    
21C                 0:36      19.576    
21C                 0:39      19.898    
21C                 0:42      20.000    
21C                 0:45      19.908    
21C                 0:48      19.649    
21C                 0:51      19.250    
21C                 0:54      18.737    
21C                 0:57      18.131    
21C                 1:00      17.455    
21C                 1:03      16.727    
21C                 1:06      15.963    
21C                 1:09      15.177    
21C                 1:12      14.381    
21C                 1:15      13.587    
21C                 1:18      12.802    
21C                 1:21      12.033    
21C                 1:24      11.285    
21C                 1:27      10.565    
21C                 1:30      9.873     
21C                 1:33      9.213     
21C                 1:36      8.586     
21C                 1:39      7.994     
21C                 1:42      7.436     
21C                 1:45      6.912     
21C                 1:48      6.422     
21C                 1:51      5.965     
21C                 1:54      5.540     
21C                 1:57      5.145     
21C                 2:00      4.780     
21C                 2:03      4.443     
21C                 2:06      4.132     
21C                 2:09      3.846     
21C                 2:12      3.583     
21C                 2:15      3.342     
21C                 2:18      3.122     
21C                 2:21      2.920     
21C                 2:24      2.736     
21C                 2:27      2.568     
21C                 2:30      2.416     
21C                 2:33      2.277     
21C                 2:36      2.151     
21C                 2:39      2.036     
21C                 2:42      1.932     
21C                 2:45      1.838     
21C                 2:48      1.754     
21C                 2:51      1.677     
21C                 2:54      1.607     
21C                 2:57      1.545     
21C                 3:00      1.489     
22C                 0:00      0.000     
22C                 0:03      0.000     
22C                 0:06      0.000     
22C                 0:09      0.000     
22C                 0:12      0.000     
22C                 0:15      0.000     
22C                 0:18      0.000     
22C                 0:21      0.000     
22C                 0:24      0.000     
22C                 0:27      0.000     
22C                 0:30      0.000     
22C                 0:33      0.000     
22C                 0:36      0.000     
22C                 0:39      0.000     
22C                 0:42      0.000     
22C                 0:45      0.000     
22C                 0:48      0.000     
22C                 0:51      0.000     
22C                 0:54      0.000     
22C                 0:57      0.000     
22C                 1:00      0.000     
22C                 1:03      0.000     
22C                 1:06      0.000     
22C                 1:09      0.000     
22C                 1:12      0.000     
22C                 1:15      0.000     
22C                 1:18      0.000     
22C                 1:21      0.000     
22C                 1:24      0.000     
22C                 1:27      0.000     
22C                 1:30      0.000     
22C                 1:33      0.000     
22C                 1:36      0.000     
22C                 1:39      0.000     
22C                 1:42      0.000     
22C                 1:45      0.000     
22C                 1:48      0.000     
22C                 1:51      0.000     
22C                 1:54      0.000     
22C                 1:57      0.000     
22C                 2:00      0.000     
22C                 2:03      0.000     
22C                 2:06      0.000     
22C                 2:09      0.000     
22C                 2:12      0.000     
22C                 2:15      0.000     
22C                 2:18      0.000     
22C                 2:21      0.000     
22C                 2:24      0.000     
22C                 2:27      0.000     
22C                 2:30      0.000     
22C                 2:33      0.000     
22C                 2:36      0.000     
22C                 2:39      0.000     
22C                 2:42      0.000     
22C                 2:45      0.000     
22C                 2:48      0.000     
22C                 2:51      0.000     
22C                 2:54      0.000     
22C                 2:57      0.000     
22C                 3:00      0.000     
22I                 0:00      1.900     
22I                 0:03      3.080     
22I                 0:06      5.991     
22I                 0:09      9.879     
22I                 0:12      14.197    
22I                 0:15      18.556    
22I                 0:18      22.692    
22I                 0:21      26.432    
22I                 0:24      29.677    
22I                 0:27      32.375    
22I                 0:30      34.515    
22I                 0:33      36.111    
22I                 0:36      37.194    
22I                 0:39      37.807    
22I                 0:42      38.000    
22I                 0:45      37.825    
22I                 0:48      37.333    
22I                 0:51      36.576    
22I                 0:54      35.600    
22I                 0:57      34.450    
22I                 1:00      33.165    
22I                 1:03      31.781    
22I                 1:06      30.329    
22I                 1:09      28.836    
22I                 1:12      27.325    
22I                 1:15      25.815    
22I                 1:18      24.323    
22I                 1:21      22.862    
22I                 1:24      21.442    
22I                 1:27      20.073    
22I                 1:30      18.759    
22I                 1:33      17.505    
22I                 1:36      16.314    
22I                 1:39      15.189    
22I                 1:42      14.128    
22I                 1:45      13.133    
22I                 1:48      12.202    
22I                 1:51      11.334    
22I                 1:54      10.526    
22I                 1:57      9.776     
22I                 2:00      9.083     
22I                 2:03      8.442     
22I                 2:06      7.851     
22I                 2:09      7.307     
22I                 2:12      6.808     
22I                 2:15      6.350     
22I                 2:18      5.931     
22I                 2:21      5.548     
22I                 2:24      5.198     
22I                 2:27      4.880     
22I                 2:30      4.590     
22I                 2:33      4.326     
22I                 2:36      4.086     
22I                 2:39      3.869     
22I                 2:42      3.672     
22I                 2:45      3.493     
22I                 2:48      3.332     
22I                 2:51      3.186     
22I                 2:54      3.054     
22I                 2:57      2.935     
22I                 3:00      2.828     
23C                 0:00      0.975     
23C                 0:03      1.580     
23C                 0:06      3.074     
23C                 0:09      5.070     
23C                 0:12      7.285     
23C                 0:15      9.522     
23C                 0:18      11.644    
23C                 0:21      13.564    
23C                 0:24      15.229    
23C                 0:27      16.614    
23C                 0:30      17.712    
23C                 0:33      18.531    
23C                 0:36      19.086    
23C                 0:39      19.401    
23C                 0:42      19.500    
23C                 0:45      19.410    
23C                 0:48      19.158    
23C                 0:51      18.769    
23C                 0:54      18.268    
23C                 0:57      17.678    
23C                 1:00      17.019    
23C                 1:03      16.309    
23C                 1:06      15.564    
23C                 1:09      14.797    
23C                 1:12      14.022    
23C                 1:15      13.247    
23C                 1:18      12.482    
23C                 1:21      11.732    
23C                 1:24      11.003    
23C                 1:27      10.300    
23C                 1:30      9.626     
23C                 1:33      8.983     
23C                 1:36      8.372     
23C                 1:39      7.794     
23C                 1:42      7.250     
23C                 1:45      6.739     
23C                 1:48      6.262     
23C                 1:51      5.816     
23C                 1:54      5.401     
23C                 1:57      5.017     
23C                 2:00      4.661     
23C                 2:03      4.332     
23C                 2:06      4.029     
23C                 2:09      3.750     
23C                 2:12      3.494     
23C                 2:15      3.259     
23C                 2:18      3.044     
23C                 2:21      2.847     
23C                 2:24      2.668     
23C                 2:27      2.504     
23C                 2:30      2.355     
23C                 2:33      2.220     
23C                 2:36      2.097     
23C                 2:39      1.985     
23C                 2:42      1.884     
23C                 2:45      1.793     
23C                 2:48      1.710     
23C                 2:51      1.635     
23C                 2:54      1.567     
23C                 2:57      1.506     
23C                 3:00      1.451     
23I                 0:00      0.325     
23I                 0:03      0.527     
23I                 0:06      1.025     
23I                 0:09      1.690     
23I                 0:12      2.428     
23I                 0:15      3.174     
23I                 0:18      3.881     
23I                 0:21      4.521     
23I                 0:24      5.076     
23I                 0:27      5.538     
23I                 0:30      5.904     
23I                 0:33      6.177     
23I                 0:36      6.362     
23I                 0:39      6.467     
23I                 0:42      6.500     
23I                 0:45      6.470     
23I                 0:48      6.386     
23I                 0:51      6.256     
23I                 0:54      6.089     
23I                 0:57      5.893     
23I                 1:00      5.673     
23I                 1:03      5.436     
23I                 1:06      5.188     
23I                 1:09      4.932     
23I                 1:12      4.674     
23I                 1:15      4.416     
23I                 1:18      4.161     
23I                 1:21      3.911     
23I                 1:24      3.668     
23I                 1:27      3.433     
23I                 1:30      3.209     
23I                 1:33      2.994     
23I                 1:36      2.791     
23I                 1:39      2.598     
23I                 1:42      2.417     
23I                 1:45      2.246     
23I                 1:48      2.087     
23I                 1:51      1.939     
23I                 1:54      1.800     
23I                 1:57      1.672     
23I                 2:00      1.554     
23I                 2:03      1.444     
23I                 2:06      1.343     
23I                 2:09      1.250     
23I                 2:12      1.165     
23I                 2:15      1.086     
23I                 2:18      1.015     
23I                 2:21      0.949     
23I                 2:24      0.889     
23I                 2:27      0.835     
23I                 2:30      0.785     
23I                 2:33      0.740     
23I                 2:36      0.699     
23I                 2:39      0.662     
23I                 2:42      0.628     
23I                 2:45      0.598     
23I                 2:48      0.570     
23I                 2:51      0.545     
23I                 2:54      0.522     
23I                 2:57      0.502     
23I                 3:00      0.484     
24C                 0:00      1.300     
24C                 0:03      2.107     
24C                 0:06      4.099     
24C                 0:09      6.759     
24C                 0:12      9.714     
24C                 0:15      12.696    
24C                 0:18      15.526    
24C                 0:21      18.085    
24C                 0:24      20.305    
24C                 0:27      22.151    
24C                 0:30      23.616    
24C                 0:33      24.707    
24C                 0:36      25.448    
24C                 0:39      25.868    
24C                 0:42      26.000    
24C                 0:45      25.880    
24C                 0:48      25.544    
24C                 0:51      25.025    
24C                 0:54      24.358    
24C                 0:57      23.571    
24C                 1:00      22.692    
24C                 1:03      21.745    
24C                 1:06      20.751    
24C                 1:09      19.730    
24C                 1:12      18.696    
24C                 1:15      17.663    
24C                 1:18      16.642    
24C                 1:21      15.642    
24C                 1:24      14.671    
24C                 1:27      13.734    
24C                 1:30      12.835    
24C                 1:33      11.977    
24C                 1:36      11.162    
24C                 1:39      10.392    
24C                 1:42      9.667     
24C                 1:45      8.986     
24C                 1:48      8.349     
24C                 1:51      7.755     
24C                 1:54      7.202     
24C                 1:57      6.689     
24C                 2:00      6.214     
24C                 2:03      5.776     
24C                 2:06      5.372     
24C                 2:09      5.000     
24C                 2:12      4.658     
24C                 2:15      4.345     
24C                 2:18      4.058     
24C                 2:21      3.796     
24C                 2:24      3.557     
24C                 2:27      3.339     
24C                 2:30      3.140     
24C                 2:33      2.960     
24C                 2:36      2.796     
24C                 2:39      2.647     
24C                 2:42      2.512     
24C                 2:45      2.390     
24C                 2:48      2.280     
24C                 2:51      2.180     
24C                 2:54      2.090     
24C                 2:57      2.008     
24C                 3:00      1.935     
25C                 0:00      0.900     
25C                 0:03      1.459     
25C                 0:06      2.838     
25C                 0:09      4.680     
25C                 0:12      6.725     
25C                 0:15      8.790     
25C                 0:18      10.749    
25C                 0:21      12.521    
25C                 0:24      14.057    
25C                 0:27      15.336    
25C                 0:30      16.349    
25C                 0:33      17.105    
25C                 0:36      17.618    
25C                 0:39      17.909    
25C                 0:42      18.000    
25C                 0:45      17.917    
25C                 0:48      17.684    
25C                 0:51      17.325    
25C                 0:54      16.863    
25C                 0:57      16.318    
25C                 1:00      15.710    
25C                 1:03      15.054    
25C                 1:06      14.366    
25C                 1:09      13.659    
25C                 1:12      12.943    
25C                 1:15      12.228    
25C                 1:18      11.521    
25C                 1:21      10.829    
25C                 1:24      10.157    
25C                 1:27      9.508     
25C                 1:30      8.886     
25C                 1:33      8.292     
25C                 1:36      7.728     
25C                 1:39      7.195     
25C                 1:42      6.692     
25C                 1:45      6.221     
25C                 1:48      5.780     
25C                 1:51      5.369     
25C                 1:54      4.986     
25C                 1:57      4.631     
25C                 2:00      4.302     
25C                 2:03      3.999     
25C                 2:06      3.719     
25C                 2:09      3.461     
25C                 2:12      3.225     
25C                 2:15      3.008     
25C                 2:18      2.809     
25C                 2:21      2.628     
25C                 2:24      2.462     
25C                 2:27      2.311     
25C                 2:30      2.174     
25C                 2:33      2.049     
25C                 2:36      1.935     
25C                 2:39      1.833     
25C                 2:42      1.739     
25C                 2:45      1.655     
25C                 2:48      1.578     
25C                 2:51      1.509     
25C                 2:54      1.447     
25C                 2:57      1.390     
25C                 3:00      1.340     
26C                 0:00      1.200     
26C                 0:03      1.945     
26C                 0:06      3.784     
26C                 0:09      6.239     
26C                 0:12      8.966     
26C                 0:15      11.720    
26C                 0:18      14.332    
26C                 0:21      16.694    
26C                 0:24      18.743    
26C                 0:27      20.447    
26C                 0:30      21.799    
26C                 0:33      22.807    
26C                 0:36      23.491    
26C                 0:39      23.878    
26C                 0:42      24.000    
26C                 0:45      23.889    
26C                 0:48      23.579    
26C                 0:51      23.100    
26C                 0:54      22.484    
26C                 0:57      21.758    
26C                 1:00      20.946    
26C                 1:03      20.072    
26C                 1:06      19.155    
26C                 1:09      18.212    
26C                 1:12      17.258    
26C                 1:15      16.304    
26C                 1:18      15.362    
26C                 1:21      14.439    
26C                 1:24      13.543    
26C                 1:27      12.677    
26C                 1:30      11.848    
26C                 1:33      11.056    
26C                 1:36      10.304    
26C                 1:39      9.593     
26C                 1:42      8.923     
26C                 1:45      8.295     
26C                 1:48      7.707     
26C                 1:51      7.158     
26C                 1:54      6.648     
26C                 1:57      6.175     
26C                 2:00      5.736     
26C                 2:03      5.332     
26C                 2:06      4.958     
26C                 2:09      4.615     
26C                 2:12      4.300     
26C                 2:15      4.011     
26C                 2:18      3.746     
26C                 2:21      3.504     
26C                 2:24      3.283     
26C                 2:27      3.082     
26C                 2:30      2.899     
26C                 2:33      2.732     
26C                 2:36      2.581     
26C                 2:39      2.443     
26C                 2:42      2.319     
26C                 2:45      2.206     
26C                 2:48      2.104     
26C                 2:51      2.012     
26C                 2:54      1.929     
26C                 2:57      1.854     
26C                 3:00      1.786     
27C                 0:00      1.600     
27C                 0:03      2.593     
27C                 0:06      5.045     
27C                 0:09      8.319     
27C                 0:12      11.955    
27C                 0:15      15.626    
27C                 0:18      19.109    
27C                 0:21      22.259    
27C                 0:24      24.991    
27C                 0:27      27.263    
27C                 0:30      29.065    
27C                 0:33      30.409    
27C                 0:36      31.321    
27C                 0:39      31.838    
27C                 0:42      32.000    
27C                 0:45      31.852    
27C                 0:48      31.438    
27C                 0:51      30.800    
27C                 0:54      29.979    
27C                 0:57      29.010    
27C                 1:00      27.928    
27C                 1:03      26.763    
27C                 1:06      25.540    
27C                 1:09      24.283    
27C                 1:12      23.010    
27C                 1:15      21.739    
27C                 1:18      20.482    
27C                 1:21      19.252    
27C                 1:24      18.057    
27C                 1:27      16.903    
27C                 1:30      15.797    
27C                 1:33      14.741    
27C                 1:36      13.738    
27C                 1:39      12.790    
27C                 1:42      11.898    
27C                 1:45      11.060    
27C                 1:48      10.276    
27C                 1:51      9.544     
27C                 1:54      8.864     
27C                 1:57      8.233     
27C                 2:00      7.648     
27C                 2:03      7.109     
27C                 2:06      6.611     
27C                 2:09      6.153     
27C                 2:12      5.733     
27C                 2:15      5.347     
27C                 2:18      4.995     
27C                 2:21      4.672     
27C                 2:24      4.378     
27C                 2:27      4.109     
27C                 2:30      3.865     
27C                 2:33      3.643     
27C                 2:36      3.441     
27C                 2:39      3.258     
27C                 2:42      3.092     
27C                 2:45      2.942     
27C                 2:48      2.806     
27C                 2:51      2.683     
27C                 2:54      2.572     
27C                 2:57      2.472     
27C                 3:00      2.382     
28C                 0:00      1.500     
28C                 0:03      2.431     
28C                 0:06      4.730     
28C                 0:09      7.799     
28C                 0:12      11.208    
28C                 0:15      14.649    
28C                 0:18      17.915    
28C                 0:21      20.868    
28C                 0:24      23.429    
28C                 0:27      25.559    
28C                 0:30      27.249    
28C                 0:33      28.508    
28C                 0:36      29.363    
28C                 0:39      29.848    
28C                 0:42      30.000    
28C                 0:45      29.862    
28C                 0:48      29.473    
28C                 0:51      28.875    
28C                 0:54      28.105    
28C                 0:57      27.197    
28C                 1:00      26.183    
28C                 1:03      25.090    
28C                 1:06      23.944    
28C                 1:09      22.765    
28C                 1:12      21.572    
28C                 1:15      20.380    
28C                 1:18      19.202    
28C                 1:21      18.049    
28C                 1:24      16.928    
28C                 1:27      15.847    
28C                 1:30      14.809    
28C                 1:33      13.820    
28C                 1:36      12.880    
28C                 1:39      11.991    
28C                 1:42      11.154    
28C                 1:45      10.368    
28C                 1:48      9.633     
28C                 1:51      8.948     
28C                 1:54      8.310     
28C                 1:57      7.718     
28C                 2:00      7.170     
28C                 2:03      6.664     
28C                 2:06      6.198     
28C                 2:09      5.769     
28C                 2:12      5.375     
28C                 2:15      5.013     
28C                 2:18      4.682     
28C                 2:21      4.380     
28C                 2:24      4.104     
28C                 2:27      3.852     
28C                 2:30      3.623     
28C                 2:33      3.415     
28C                 2:36      3.226     
28C                 2:39      3.054     
28C                 2:42      2.899     
28C                 2:45      2.758     
28C                 2:48      2.630     
28C                 2:51      2.515     
28C                 2:54      2.411     
28C                 2:57      2.317     
28C                 3:00      2.233     
28I                 0:00      0.500     
28I                 0:03      0.810     
28I                 0:06      1.577     
28I                 0:09      2.600     
28I                 0:12      3.736     
28I                 0:15      4.883     
28I                 0:18      5.972     
28I                 0:21      6.956     
28I                 0:24      7.810     
28I                 0:27      8.520     
28I                 0:30      9.083     
28I                 0:33      9.503     
28I                 0:36      9.788     
28I                 0:39      9.949     
28I                 0:42      10.000    
28I                 0:45      9.954     
28I                 0:48      9.824     
28I                 0:51      9.625     
28I                 0:54      9.368     
28I                 0:57      9.066     
28I                 1:00      8.728     
28I                 1:03      8.363     
28I                 1:06      7.981     
28I                 1:09      7.588     
28I                 1:12      7.191     
28I                 1:15      6.793     
28I                 1:18      6.401     
28I                 1:21      6.016     
28I                 1:24      5.643     
28I                 1:27      5.282     
28I                 1:30      4.936     
28I                 1:33      4.607     
28I                 1:36      4.293     
28I                 1:39      3.997     
28I                 1:42      3.718     
28I                 1:45      3.456     
28I                 1:48      3.211     
28I                 1:51      2.983     
28I                 1:54      2.770     
28I                 1:57      2.573     
28I                 2:00      2.390     
28I                 2:03      2.221     
28I                 2:06      2.066     
28I                 2:09      1.923     
28I                 2:12      1.792     
28I                 2:15      1.671     
28I                 2:18      1.561     
28I                 2:21      1.460     
28I                 2:24      1.368     
28I                 2:27      1.284     
28I                 2:30      1.208     
28I                 2:33      1.138     
28I                 2:36      1.075     
28I                 2:39      1.018     
28I                 2:42      0.966     
28I                 2:45      0.919     
28I                 2:48      0.877     
28I                 2:51      0.838     
28I                 2:54      0.804     
28I                 2:57      0.772     
28I                 3:00      0.744     
29C                 0:00      1.300     
29C                 0:03      2.107     
29C                 0:06      4.099     
29C                 0:09      6.759     
29C                 0:12      9.714     
29C                 0:15      12.696    
29C                 0:18      15.526    
29C                 0:21      18.085    
29C                 0:24      20.305    
29C                 0:27      22.151    
29C                 0:30      23.616    
29C                 0:33      24.707    
29C                 0:36      25.448    
29C                 0:39      25.868    
29C                 0:42      26.000    
29C                 0:45      25.880    
29C                 0:48      25.544    
29C                 0:51      25.025    
29C                 0:54      24.358    
29C                 0:57      23.571    
29C                 1:00      22.692    
29C                 1:03      21.745    
29C                 1:06      20.751    
29C                 1:09      19.730    
29C                 1:12      18.696    
29C                 1:15      17.663    
29C                 1:18      16.642    
29C                 1:21      15.642    
29C                 1:24      14.671    
29C                 1:27      13.734    
29C                 1:30      12.835    
29C                 1:33      11.977    
29C                 1:36      11.162    
29C                 1:39      10.392    
29C                 1:42      9.667     
29C                 1:45      8.986     
29C                 1:48      8.349     
29C                 1:51      7.755     
29C                 1:54      7.202     
29C                 1:57      6.689     
29C                 2:00      6.214     
29C                 2:03      5.776     
29C                 2:06      5.372     
29C                 2:09      5.000     
29C                 2:12      4.658     
29C                 2:15      4.345     
29C                 2:18      4.058     
29C                 2:21      3.796     
29C                 2:24      3.557     
29C                 2:27      3.339     
29C                 2:30      3.140     
29C                 2:33      2.960     
29C                 2:36      2.796     
29C                 2:39      2.647     
29C                 2:42      2.512     
29C                 2:45      2.390     
29C                 2:48      2.280     
29C                 2:51      2.180     
29C                 2:54      2.090     
29C                 2:57      2.008     
29C                 3:00      1.935     
30C                 0:00      0.400     
30C                 0:03      0.648     
30C                 0:06      1.261     
30C                 0:09      2.080     
30C                 0:12      2.989     
30C                 0:15      3.907     
30C                 0:18      4.777     
30C                 0:21      5.565     
30C                 0:24      6.248     
30C                 0:27      6.816     
30C                 0:30      7.266     
30C                 0:33      7.602     
30C                 0:36      7.830     
30C                 0:39      7.959     
30C                 0:42      8.000     
30C                 0:45      7.963     
30C                 0:48      7.860     
30C                 0:51      7.700     
30C                 0:54      7.495     
30C                 0:57      7.253     
30C                 1:00      6.982     
30C                 1:03      6.691     
30C                 1:06      6.385     
30C                 1:09      6.071     
30C                 1:12      5.753     
30C                 1:15      5.435     
30C                 1:18      5.121     
30C                 1:21      4.813     
30C                 1:24      4.514     
30C                 1:27      4.226     
30C                 1:30      3.949     
30C                 1:33      3.685     
30C                 1:36      3.435     
30C                 1:39      3.198     
30C                 1:42      2.974     
30C                 1:45      2.765     
30C                 1:48      2.569     
30C                 1:51      2.386     
30C                 1:54      2.216     
30C                 1:57      2.058     
30C                 2:00      1.912     
30C                 2:03      1.777     
30C                 2:06      1.653     
30C                 2:09      1.538     
30C                 2:12      1.433     
30C                 2:15      1.337     
30C                 2:18      1.249     
30C                 2:21      1.168     
30C                 2:24      1.094     
30C                 2:27      1.027     
30C                 2:30      0.966     
30C                 2:33      0.911     
30C                 2:36      0.860     
30C                 2:39      0.814     
30C                 2:42      0.773     
30C                 2:45      0.735     
30C                 2:48      0.701     
30C                 2:51      0.671     
30C                 2:54      0.643     
30C                 2:57      0.618     
30C                 3:00      0.595     
31C                 0:00      1.575     
31C                 0:03      2.553     
31C                 0:06      4.966     
31C                 0:09      8.189     
31C                 0:12      11.768    
31C                 0:15      15.382    
31C                 0:18      18.810    
31C                 0:21      21.911    
31C                 0:24      24.601    
31C                 0:27      26.837    
31C                 0:30      28.611    
31C                 0:33      29.934    
31C                 0:36      30.832    
31C                 0:39      31.340    
31C                 0:42      31.500    
31C                 0:45      31.355    
31C                 0:48      30.947    
31C                 0:51      30.319    
31C                 0:54      29.510    
31C                 0:57      28.557    
31C                 1:00      27.492    
31C                 1:03      26.345    
31C                 1:06      25.141    
31C                 1:09      23.903    
31C                 1:12      22.651    
31C                 1:15      21.399    
31C                 1:18      20.162    
31C                 1:21      18.951    
31C                 1:24      17.775    
31C                 1:27      16.639    
31C                 1:30      15.550    
31C                 1:33      14.511    
31C                 1:36      13.524    
31C                 1:39      12.591    
31C                 1:42      11.712    
31C                 1:45      10.887    
31C                 1:48      10.115    
31C                 1:51      9.395     
31C                 1:54      8.725     
31C                 1:57      8.104     
31C                 2:00      7.529     
31C                 2:03      6.998     
31C                 2:06      6.508     
31C                 2:09      6.057     
31C                 2:12      5.643     
31C                 2:15      5.264     
31C                 2:18      4.917     
31C                 2:21      4.599     
31C                 2:24      4.309     
31C                 2:27      4.045     
31C                 2:30      3.804     
31C                 2:33      3.586     
31C                 2:36      3.387     
31C                 2:39      3.207     
31C                 2:42      3.044     
31C                 2:45      2.896     
31C                 2:48      2.762     
31C                 2:51      2.641     
31C                 2:54      2.532     
31C                 2:57      2.433     
31C                 3:00      2.344     
31I                 0:00      0.525     
31I                 0:03      0.851     
31I                 0:06      1.655     
31I                 0:09      2.730     
31I                 0:12      3.923     
31I                 0:15      5.127     
31I                 0:18      6.270     
31I                 0:21      7.304     
31I                 0:24      8.200     
31I                 0:27      8.946     
31I                 0:30      9.537     
31I                 0:33      9.978     
31I                 0:36      10.277    
31I                 0:39      10.447    
31I                 0:42      10.500    
31I                 0:45      10.452    
31I                 0:48      10.316    
31I                 0:51      10.106    
31I                 0:54      9.837     
31I                 0:57      9.519     
31I                 1:00      9.164     
31I                 1:03      8.782     
31I                 1:06      8.380     
31I                 1:09      7.968     
31I                 1:12      7.550     
31I                 1:15      7.133     
31I                 1:18      6.721     
31I                 1:21      6.317     
31I                 1:24      5.925     
31I                 1:27      5.546     
31I                 1:30      5.183     
31I                 1:33      4.837     
31I                 1:36      4.508     
31I                 1:39      4.197     
31I                 1:42      3.904     
31I                 1:45      3.629     
31I                 1:48      3.372     
31I                 1:51      3.132     
31I                 1:54      2.908     
31I                 1:57      2.701     
31I                 2:00      2.510     
31I                 2:03      2.333     
31I                 2:06      2.169     
31I                 2:09      2.019     
31I                 2:12      1.881     
31I                 2:15      1.755     
31I                 2:18      1.639     
31I                 2:21      1.533     
31I                 2:24      1.436     
31I                 2:27      1.348     
31I                 2:30      1.268     
31I                 2:33      1.195     
31I                 2:36      1.129     
31I                 2:39      1.069     
31I                 2:42      1.015     
31I                 2:45      0.965     
31I                 2:48      0.921     
31I                 2:51      0.880     
31I                 2:54      0.844     
31I                 2:57      0.811     
31I                 3:00      0.781     
32C                 0:00      1.300     
32C                 0:03      2.107     
32C                 0:06      4.099     
32C                 0:09      6.759     
32C                 0:12      9.714     
32C                 0:15      12.696    
32C                 0:18      15.526    
32C                 0:21      18.085    
32C                 0:24      20.305    
32C                 0:27      22.151    
32C                 0:30      23.616    
32C                 0:33      24.707    
32C                 0:36      25.448    
32C                 0:39      25.868    
32C                 0:42      26.000    
32C                 0:45      25.880    
32C                 0:48      25.544    
32C                 0:51      25.025    
32C                 0:54      24.358    
32C                 0:57      23.571    
32C                 1:00      22.692    
32C                 1:03      21.745    
32C                 1:06      20.751    
32C                 1:09      19.730    
32C                 1:12      18.696    
32C                 1:15      17.663    
32C                 1:18      16.642    
32C                 1:21      15.642    
32C                 1:24      14.671    
32C                 1:27      13.734    
32C                 1:30      12.835    
32C                 1:33      11.977    
32C                 1:36      11.162    
32C                 1:39      10.392    
32C                 1:42      9.667     
32C                 1:45      8.986     
32C                 1:48      8.349     
32C                 1:51      7.755     
32C                 1:54      7.202     
32C                 1:57      6.689     
32C                 2:00      6.214     
32C                 2:03      5.776     
32C                 2:06      5.372     
32C                 2:09      5.000     
32C                 2:12      4.658     
32C                 2:15      4.345     
32C                 2:18      4.058     
32C                 2:21      3.796     
32C                 2:24      3.557     
32C                 2:27      3.339     
32C                 2:30      3.140     
32C                 2:33      2.960     
32C                 2:36      2.796     
32C                 2:39      2.647     
32C                 2:42      2.512     
32C                 2:45      2.390     
32C                 2:48      2.280     
32C                 2:51      2.180     
32C                 2:54      2.090     
32C                 2:57      2.008     
32C                 3:00      1.935     
33C                 0:00      1.300     
33C                 0:03      2.107     
33C                 0:06      4.099     
33C                 0:09      6.759     
33C                 0:12      9.714     
33C                 0:15      12.696    
33C                 0:18      15.526    
33C                 0:21      18.085    
33C                 0:24      20.305    
33C                 0:27      22.151    
33C                 0:30      23.616    
33C                 0:33      24.707    
33C                 0:36      25.448    
33C                 0:39      25.868    
33C                 0:42      26.000    
33C                 0:45      25.880    
33C                 0:48      25.544    
33C                 0:51      25.025    
33C                 0:54      24.358    
33C                 0:57      23.571    
33C                 1:00      22.692    
33C                 1:03      21.745    
33C                 1:06      20.751    
33C                 1:09      19.730    
33C                 1:12      18.696    
33C                 1:15      17.663    
33C                 1:18      16.642    
33C                 1:21      15.642    
33C                 1:24      14.671    
33C                 1:27      13.734    
33C                 1:30      12.835    
33C                 1:33      11.977    
33C                 1:36      11.162    
33C                 1:39      10.392    
33C                 1:42      9.667     
33C                 1:45      8.986     
33C                 1:48      8.349     
33C                 1:51      7.755     
33C                 1:54      7.202     
33C                 1:57      6.689     
33C                 2:00      6.214     
33C                 2:03      5.776     
33C                 2:06      5.372     
33C                 2:09      5.000     
33C                 2:12      4.658     
33C                 2:15      4.345     
33C                 2:18      4.058     
33C                 2:21      3.796     
33C                 2:24      3.557     
33C                 2:27      3.339     
33C                 2:30      3.140     
33C                 2:33      2.960     
33C                 2:36      2.796     
33C                 2:39      2.647     
33C                 2:42      2.512     
33C                 2:45      2.390     
33C                 2:48      2.280     
33C                 2:51      2.180     
33C                 2:54      2.090     
33C                 2:57      2.008     
33C                 3:00      1.935     
34I                 0:00      0.675     
34I                 0:03      1.094     
34I                 0:06      2.128     
34I                 0:09      3.510     
34I                 0:12      5.044     
34I                 0:15      6.592     
34I                 0:18      8.062     
34I                 0:21      9.390     
34I                 0:24      10.543    
34I                 0:27      11.502    
34I                 0:30      12.262    
34I                 0:33      12.829    
34I                 0:36      13.214    
34I                 0:39      13.431    
34I                 0:42      13.500    
34I                 0:45      13.438    
34I                 0:48      13.263    
34I                 0:51      12.994    
34I                 0:54      12.647    
34I                 0:57      12.239    
34I                 1:00      11.782    
34I                 1:03      11.291    
34I                 1:06      10.775    
34I                 1:09      10.244    
34I                 1:12      9.707     
34I                 1:15      9.171     
34I                 1:18      8.641     
34I                 1:21      8.122     
34I                 1:24      7.618     
34I                 1:27      7.131     
34I                 1:30      6.664     
34I                 1:33      6.219     
34I                 1:36      5.796     
34I                 1:39      5.396     
34I                 1:42      5.019     
34I                 1:45      4.666     
34I                 1:48      4.335     
34I                 1:51      4.026     
34I                 1:54      3.739     
34I                 1:57      3.473     
34I                 2:00      3.227     
34I                 2:03      2.999     
34I                 2:06      2.789     
34I                 2:09      2.596     
34I                 2:12      2.419     
34I                 2:15      2.256     
34I                 2:18      2.107     
34I                 2:21      1.971     
34I                 2:24      1.847     
34I                 2:27      1.734     
34I                 2:30      1.630     
34I                 2:33      1.537     
34I                 2:36      1.452     
34I                 2:39      1.374     
34I                 2:42      1.304     
34I                 2:45      1.241     
34I                 2:48      1.184     
34I                 2:51      1.132     
34I                 2:54      1.085     
34I                 2:57      1.043     
34I                 3:00      1.005     
34Ib                0:00      0.225     
34Ib                0:03      0.365     
34Ib                0:06      0.709     
34Ib                0:09      1.170     
34Ib                0:12      1.681     
34Ib                0:15      2.197     
34Ib                0:18      2.687     
34Ib                0:21      3.130     
34Ib                0:24      3.514     
34Ib                0:27      3.834     
34Ib                0:30      4.087     
34Ib                0:33      4.276     
34Ib                0:36      4.405     
34Ib                0:39      4.477     
34Ib                0:42      4.500     
34Ib                0:45      4.479     
34Ib                0:48      4.421     
34Ib                0:51      4.331     
34Ib                0:54      4.216     
34Ib                0:57      4.080     
34Ib                1:00      3.927     
34Ib                1:03      3.764     
34Ib                1:06      3.592     
34Ib                1:09      3.415     
34Ib                1:12      3.236     
34Ib                1:15      3.057     
34Ib                1:18      2.880     
34Ib                1:21      2.707     
34Ib                1:24      2.539     
34Ib                1:27      2.377     
34Ib                1:30      2.221     
34Ib                1:33      2.073     
34Ib                1:36      1.932     
34Ib                1:39      1.799     
34Ib                1:42      1.673     
34Ib                1:45      1.555     
34Ib                1:48      1.445     
34Ib                1:51      1.342     
34Ib                1:54      1.246     
34Ib                1:57      1.158     
34Ib                2:00      1.076     
34Ib                2:03      1.000     
34Ib                2:06      0.930     
34Ib                2:09      0.865     
34Ib                2:12      0.806     
34Ib                2:15      0.752     
34Ib                2:18      0.702     
34Ib                2:21      0.657     
34Ib                2:24      0.616     
34Ib                2:27      0.578     
34Ib                2:30      0.543     
34Ib                2:33      0.512     
34Ib                2:36      0.484     
34Ib                2:39      0.458     
34Ib                2:42      0.435     
34Ib                2:45      0.414     
34Ib                2:48      0.395     
34Ib                2:51      0.377     
34Ib                2:54      0.362     
34Ib                2:57      0.348     
34Ib                3:00      0.335     
35C                 0:00      1.400     
35C                 0:03      2.269     
35C                 0:06      4.414     
35C                 0:09      7.279     
35C                 0:12      10.461    
35C                 0:15      13.673    
35C                 0:18      16.720    
35C                 0:21      19.477    
35C                 0:24      21.867    
35C                 0:27      23.855    
35C                 0:30      25.432    
35C                 0:33      26.608    
35C                 0:36      27.406    
35C                 0:39      27.858    
35C                 0:42      28.000    
35C                 0:45      27.871    
35C                 0:48      27.508    
35C                 0:51      26.950    
35C                 0:54      26.231    
35C                 0:57      25.384    
35C                 1:00      24.437    
35C                 1:03      23.418    
35C                 1:06      22.348    
35C                 1:09      21.247    
35C                 1:12      20.134    
35C                 1:15      19.021    
35C                 1:18      17.922    
35C                 1:21      16.846    
35C                 1:24      15.800    
35C                 1:27      14.790    
35C                 1:30      13.822    
35C                 1:33      12.898    
35C                 1:36      12.021    
35C                 1:39      11.192    
35C                 1:42      10.410    
35C                 1:45      9.677     
35C                 1:48      8.991     
35C                 1:51      8.351     
35C                 1:54      7.756     
35C                 1:57      7.204     
35C                 2:00      6.692     
35C                 2:03      6.220     
35C                 2:06      5.785     
35C                 2:09      5.384     
35C                 2:12      5.016     
35C                 2:15      4.679     
35C                 2:18      4.370     
35C                 2:21      4.088     
35C                 2:24      3.830     
35C                 2:27      3.596     
35C                 2:30      3.382     
35C                 2:33      3.187     
35C                 2:36      3.011     
35C                 2:39      2.851     
35C                 2:42      2.705     
35C                 2:45      2.574     
35C                 2:48      2.455     
35C                 2:51      2.347     
35C                 2:54      2.250     
35C                 2:57      2.163     
35C                 3:00      2.084     
36C                 0:00      1.400     
36C                 0:03      2.269     
36C                 0:06      4.414     
36C                 0:09      7.279     
36C                 0:12      10.461    
36C                 0:15      13.673    
36C                 0:18      16.720    
36C                 0:21      19.477    
36C                 0:24      21.867    
36C                 0:27      23.855    
36C                 0:30      25.432    
36C                 0:33      26.608    
36C                 0:36      27.406    
36C                 0:39      27.858    
36C                 0:42      28.000    
36C                 0:45      27.871    
36C                 0:48      27.508    
36C                 0:51      26.950    
36C                 0:54      26.231    
36C                 0:57      25.384    
36C                 1:00      24.437    
36C                 1:03      23.418    
36C                 1:06      22.348    
36C                 1:09      21.247    
36C                 1:12      20.134    
36C                 1:15      19.021    
36C                 1:18      17.922    
36C                 1:21      16.846    
36C                 1:24      15.800    
36C                 1:27      14.790    
36C                 1:30      13.822    
36C                 1:33      12.898    
36C                 1:36      12.021    
36C                 1:39      11.192    
36C                 1:42      10.410    
36C                 1:45      9.677     
36C                 1:48      8.991     
36C                 1:51      8.351     
36C                 1:54      7.756     
36C                 1:57      7.204     
36C                 2:00      6.692     
36C                 2:03      6.220     
36C                 2:06      5.785     
36C                 2:09      5.384     
36C                 2:12      5.016     
36C                 2:15      4.679     
36C                 2:18      4.370     
36C                 2:21      4.088     
36C                 2:24      3.830     
36C                 2:27      3.596     
36C                 2:30      3.382     
36C                 2:33      3.187     
36C                 2:36      3.011     
36C                 2:39      2.851     
36C                 2:42      2.705     
36C                 2:45      2.574     
36C                 2:48      2.455     
36C                 2:51      2.347     
36C                 2:54      2.250     
36C                 2:57      2.163     
36C                 3:00      2.084     
37I                 0:00      0.675     
37I                 0:03      1.094     
37I                 0:06      2.128     
37I                 0:09      3.510     
37I                 0:12      5.044     
37I                 0:15      6.592     
37I                 0:18      8.062     
37I                 0:21      9.390     
37I                 0:24      10.543    
37I                 0:27      11.502    
37I                 0:30      12.262    
37I                 0:33      12.829    
37I                 0:36      13.214    
37I                 0:39      13.431    
37I                 0:42      13.500    
37I                 0:45      13.438    
37I                 0:48      13.263    
37I                 0:51      12.994    
37I                 0:54      12.647    
37I                 0:57      12.239    
37I                 1:00      11.782    
37I                 1:03      11.291    
37I                 1:06      10.775    
37I                 1:09      10.244    
37I                 1:12      9.707     
37I                 1:15      9.171     
37I                 1:18      8.641     
37I                 1:21      8.122     
37I                 1:24      7.618     
37I                 1:27      7.131     
37I                 1:30      6.664     
37I                 1:33      6.219     
37I                 1:36      5.796     
37I                 1:39      5.396     
37I                 1:42      5.019     
37I                 1:45      4.666     
37I                 1:48      4.335     
37I                 1:51      4.026     
37I                 1:54      3.739     
37I                 1:57      3.473     
37I                 2:00      3.227     
37I                 2:03      2.999     
37I                 2:06      2.789     
37I                 2:09      2.596     
37I                 2:12      2.419     
37I                 2:15      2.256     
37I                 2:18      2.107     
37I                 2:21      1.971     
37I                 2:24      1.847     
37I                 2:27      1.734     
37I                 2:30      1.630     
37I                 2:33      1.537     
37I                 2:36      1.452     
37I                 2:39      1.374     
37I                 2:42      1.304     
37I                 2:45      1.241     
37I                 2:48      1.184     
37I                 2:51      1.132     
37I                 2:54      1.085     
37I                 2:57      1.043     
37I                 3:00      1.005     
37Ib                0:00      0.225     
37Ib                0:03      0.365     
37Ib                0:06      0.709     
37Ib                0:09      1.170     
37Ib                0:12      1.681     
37Ib                0:15      2.197     
37Ib                0:18      2.687     
37Ib                0:21      3.130     
37Ib                0:24      3.514     
37Ib                0:27      3.834     
37Ib                0:30      4.087     
37Ib                0:33      4.276     
37Ib                0:36      4.405     
37Ib                0:39      4.477     
37Ib                0:42      4.500     
37Ib                0:45      4.479     
37Ib                0:48      4.421     
37Ib                0:51      4.331     
37Ib                0:54      4.216     
37Ib                0:57      4.080     
37Ib                1:00      3.927     
37Ib                1:03      3.764     
37Ib                1:06      3.592     
37Ib                1:09      3.415     
37Ib                1:12      3.236     
37Ib                1:15      3.057     
37Ib                1:18      2.880     
37Ib                1:21      2.707     
37Ib                1:24      2.539     
37Ib                1:27      2.377     
37Ib                1:30      2.221     
37Ib                1:33      2.073     
37Ib                1:36      1.932     
37Ib                1:39      1.799     
37Ib                1:42      1.673     
37Ib                1:45      1.555     
37Ib                1:48      1.445     
37Ib                1:51      1.342     
37Ib                1:54      1.246     
37Ib                1:57      1.158     
37Ib                2:00      1.076     
37Ib                2:03      1.000     
37Ib                2:06      0.930     
37Ib                2:09      0.865     
37Ib                2:12      0.806     
37Ib                2:15      0.752     
37Ib                2:18      0.702     
37Ib                2:21      0.657     
37Ib                2:24      0.616     
37Ib                2:27      0.578     
37Ib                2:30      0.543     
37Ib                2:33      0.512     
37Ib                2:36      0.484     
37Ib                2:39      0.458     
37Ib                2:42      0.435     
37Ib                2:45      0.414     
37Ib                2:48      0.395     
37Ib                2:51      0.377     
37Ib                2:54      0.362     
37Ib                2:57      0.348     
37Ib                3:00      0.335     
38C                 0:00      0.900     
38C                 0:03      1.459     
38C                 0:06      2.838     
38C                 0:09      4.680     
38C                 0:12      6.725     
38C                 0:15      8.790     
38C                 0:18      10.749    
38C                 0:21      12.521    
38C                 0:24      14.057    
38C                 0:27      15.336    
38C                 0:30      16.349    
38C                 0:33      17.105    
38C                 0:36      17.618    
38C                 0:39      17.909    
38C                 0:42      18.000    
38C                 0:45      17.917    
38C                 0:48      17.684    
38C                 0:51      17.325    
38C                 0:54      16.863    
38C                 0:57      16.318    
38C                 1:00      15.710    
38C                 1:03      15.054    
38C                 1:06      14.366    
38C                 1:09      13.659    
38C                 1:12      12.943    
38C                 1:15      12.228    
38C                 1:18      11.521    
38C                 1:21      10.829    
38C                 1:24      10.157    
38C                 1:27      9.508     
38C                 1:30      8.886     
38C                 1:33      8.292     
38C                 1:36      7.728     
38C                 1:39      7.195     
38C                 1:42      6.692     
38C                 1:45      6.221     
38C                 1:48      5.780     
38C                 1:51      5.369     
38C                 1:54      4.986     
38C                 1:57      4.631     
38C                 2:00      4.302     
38C                 2:03      3.999     
38C                 2:06      3.719     
38C                 2:09      3.461     
38C                 2:12      3.225     
38C                 2:15      3.008     
38C                 2:18      2.809     
38C                 2:21      2.628     
38C                 2:24      2.462     
38C                 2:27      2.311     
38C                 2:30      2.174     
38C                 2:33      2.049     
38C                 2:36      1.935     
38C                 2:39      1.833     
38C                 2:42      1.739     
38C                 2:45      1.655     
38C                 2:48      1.578     
38C                 2:51      1.509     
38C                 2:54      1.447     
38C                 2:57      1.390     
38C                 3:00      1.340     
39C                 0:00      1.300     
39C                 0:03      2.107     
39C                 0:06      4.099     
39C                 0:09      6.759     
39C                 0:12      9.714     
39C                 0:15      12.696    
39C                 0:18      15.526    
39C                 0:21      18.085    
39C                 0:24      20.305    
39C                 0:27      22.151    
39C                 0:30      23.616    
39C                 0:33      24.707    
39C                 0:36      25.448    
39C                 0:39      25.868    
39C                 0:42      26.000    
39C                 0:45      25.880    
39C                 0:48      25.544    
39C                 0:51      25.025    
39C                 0:54      24.358    
39C                 0:57      23.571    
39C                 1:00      22.692    
39C                 1:03      21.745    
39C                 1:06      20.751    
39C                 1:09      19.730    
39C                 1:12      18.696    
39C                 1:15      17.663    
39C                 1:18      16.642    
39C                 1:21      15.642    
39C                 1:24      14.671    
39C                 1:27      13.734    
39C                 1:30      12.835    
39C                 1:33      11.977    
39C                 1:36      11.162    
39C                 1:39      10.392    
39C                 1:42      9.667     
39C                 1:45      8.986     
39C                 1:48      8.349     
39C                 1:51      7.755     
39C                 1:54      7.202     
39C                 1:57      6.689     
39C                 2:00      6.214     
39C                 2:03      5.776     
39C                 2:06      5.372     
39C                 2:09      5.000     
39C                 2:12      4.658     
39C                 2:15      4.345     
39C                 2:18      4.058     
39C                 2:21      3.796     
39C                 2:24      3.557     
39C                 2:27      3.339     
39C                 2:30      3.140     
39C                 2:33      2.960     
39C                 2:36      2.796     
39C                 2:39      2.647     
39C                 2:42      2.512     
39C                 2:45      2.390     
39C                 2:48      2.280     
39C                 2:51      2.180     
39C                 2:54      2.090     
39C                 2:57      2.008     
39C                 3:00      1.935     
40C                 0:00      0.900     
40C                 0:03      1.459     
40C                 0:06      2.838     
40C                 0:09      4.680     
40C                 0:12      6.725     
40C                 0:15      8.790     
40C                 0:18      10.749    
40C                 0:21      12.521    
40C                 0:24      14.057    
40C                 0:27      15.336    
40C                 0:30      16.349    
40C                 0:33      17.105    
40C                 0:36      17.618    
40C                 0:39      17.909    
40C                 0:42      18.000    
40C                 0:45      17.917    
40C                 0:48      17.684    
40C                 0:51      17.325    
40C                 0:54      16.863    
40C                 0:57      16.318    
40C                 1:00      15.710    
40C                 1:03      15.054    
40C                 1:06      14.366    
40C                 1:09      13.659    
40C                 1:12      12.943    
40C                 1:15      12.228    
40C                 1:18      11.521    
40C                 1:21      10.829    
40C                 1:24      10.157    
40C                 1:27      9.508     
40C                 1:30      8.886     
40C                 1:33      8.292     
40C                 1:36      7.728     
40C                 1:39      7.195     
40C                 1:42      6.692     
40C                 1:45      6.221     
40C                 1:48      5.780     
40C                 1:51      5.369     
40C                 1:54      4.986     
40C                 1:57      4.631     
40C                 2:00      4.302     
40C                 2:03      3.999     
40C                 2:06      3.719     
40C                 2:09      3.461     
40C                 2:12      3.225     
40C                 2:15      3.008     
40C                 2:18      2.809     
40C                 2:21      2.628     
40C                 2:24      2.462     
40C                 2:27      2.311     
40C                 2:30      2.174     
40C                 2:33      2.049     
40C                 2:36      1.935     
40C                 2:39      1.833     
40C                 2:42      1.739     
40C                 2:45      1.655     
40C                 2:48      1.578     
40C                 2:51      1.509     
40C                 2:54      1.447     
40C                 2:57      1.390     
40C                 3:00      1.340     
40I                 0:00      0.300     
40I                 0:03      0.486     
40I                 0:06      0.946     
40I                 0:09      1.560     
40I                 0:12      2.242     
40I                 0:15      2.930     
40I                 0:18      3.583     
40I                 0:21      4.174     
40I                 0:24      4.686     
40I                 0:27      5.112     
40I                 0:30      5.450     
40I                 0:33      5.702     
40I                 0:36      5.873     
40I                 0:39      5.970     
40I                 0:42      6.000     
40I                 0:45      5.972     
40I                 0:48      5.895     
40I                 0:51      5.775     
40I                 0:54      5.621     
40I                 0:57      5.439     
40I                 1:00      5.237     
40I                 1:03      5.018     
40I                 1:06      4.789     
40I                 1:09      4.553     
40I                 1:12      4.314     
40I                 1:15      4.076     
40I                 1:18      3.840     
40I                 1:21      3.610     
40I                 1:24      3.386     
40I                 1:27      3.169     
40I                 1:30      2.962     
40I                 1:33      2.764     
40I                 1:36      2.576     
40I                 1:39      2.398     
40I                 1:42      2.231     
40I                 1:45      2.074     
40I                 1:48      1.927     
40I                 1:51      1.790     
40I                 1:54      1.662     
40I                 1:57      1.544     
40I                 2:00      1.434     
40I                 2:03      1.333     
40I                 2:06      1.240     
40I                 2:09      1.154     
40I                 2:12      1.075     
40I                 2:15      1.003     
40I                 2:18      0.936     
40I                 2:21      0.876     
40I                 2:24      0.821     
40I                 2:27      0.770     
40I                 2:30      0.725     
40I                 2:33      0.683     
40I                 2:36      0.645     
40I                 2:39      0.611     
40I                 2:42      0.580     
40I                 2:45      0.552     
40I                 2:48      0.526     
40I                 2:51      0.503     
40I                 2:54      0.482     
40I                 2:57      0.463     
40I                 3:00      0.447     
41C                 0:00      1.300     
41C                 0:03      2.107     
41C                 0:06      4.099     
41C                 0:09      6.759     
41C                 0:12      9.714     
41C                 0:15      12.696    
41C                 0:18      15.526    
41C                 0:21      18.085    
41C                 0:24      20.305    
41C                 0:27      22.151    
41C                 0:30      23.616    
41C                 0:33      24.707    
41C                 0:36      25.448    
41C                 0:39      25.868    
41C                 0:42      26.000    
41C                 0:45      25.880    
41C                 0:48      25.544    
41C                 0:51      25.025    
41C                 0:54      24.358    
41C                 0:57      23.571    
41C                 1:00      22.692    
41C                 1:03      21.745    
41C                 1:06      20.751    
41C                 1:09      19.730    
41C                 1:12      18.696    
41C                 1:15      17.663    
41C                 1:18      16.642    
41C                 1:21      15.642    
41C                 1:24      14.671    
41C                 1:27      13.734    
41C                 1:30      12.835    
41C                 1:33      11.977    
41C                 1:36      11.162    
41C                 1:39      10.392    
41C                 1:42      9.667     
41C                 1:45      8.986     
41C                 1:48      8.349     
41C                 1:51      7.755     
41C                 1:54      7.202     
41C                 1:57      6.689     
41C                 2:00      6.214     
41C                 2:03      5.776     
41C                 2:06      5.372     
41C                 2:09      5.000     
41C                 2:12      4.658     
41C                 2:15      4.345     
41C                 2:18      4.058     
41C                 2:21      3.796     
41C                 2:24      3.557     
41C                 2:27      3.339     
41C                 2:30      3.140     
41C                 2:33      2.960     
41C                 2:36      2.796     
41C                 2:39      2.647     
41C                 2:42      2.512     
41C                 2:45      2.390     
41C                 2:48      2.280     
41C                 2:51      2.180     
41C                 2:54      2.090     
41C                 2:57      2.008     
41C                 3:00      1.935     
42C                 0:00      0.900     
42C                 0:03      1.459     
42C                 0:06      2.838     
42C                 0:09      4.680     
42C                 0:12      6.725     
42C                 0:15      8.790     
42C                 0:18      10.749    
42C                 0:21      12.521    
42C                 0:24      14.057    
42C                 0:27      15.336    
42C                 0:30      16.349    
42C                 0:33      17.105    
42C                 0:36      17.618    
42C                 0:39      17.909    
42C                 0:42      18.000    
42C                 0:45      17.917    
42C                 0:48      17.684    
42C                 0:51      17.325    
42C                 0:54      16.863    
42C                 0:57      16.318    
42C                 1:00      15.710    
42C                 1:03      15.054    
42C                 1:06      14.366    
42C                 1:09      13.659    
42C                 1:12      12.943    
42C                 1:15      12.228    
42C                 1:18      11.521    
42C                 1:21      10.829    
42C                 1:24      10.157    
42C                 1:27      9.508     
42C                 1:30      8.886     
42C                 1:33      8.292     
42C                 1:36      7.728     
42C                 1:39      7.195     
42C                 1:42      6.692     
42C                 1:45      6.221     
42C                 1:48      5.780     
42C                 1:51      5.369     
42C                 1:54      4.986     
42C                 1:57      4.631     
42C                 2:00      4.302     
42C                 2:03      3.999     
42C                 2:06      3.719     
42C                 2:09      3.461     
42C                 2:12      3.225     
42C                 2:15      3.008     
42C                 2:18      2.809     
42C                 2:21      2.628     
42C                 2:24      2.462     
42C                 2:27      2.311     
42C                 2:30      2.174     
42C                 2:33      2.049     
42C                 2:36      1.935     
42C                 2:39      1.833     
42C                 2:42      1.739     
42C                 2:45      1.655     
42C                 2:48      1.578     
42C                 2:51      1.509     
42C                 2:54      1.447     
42C                 2:57      1.390     
42C                 3:00      1.340     
43C                 0:00      0.975     
43C                 0:03      1.580     
43C                 0:06      3.074     
43C                 0:09      5.070     
43C                 0:12      7.285     
43C                 0:15      9.522     
43C                 0:18      11.644    
43C                 0:21      13.564    
43C                 0:24      15.229    
43C                 0:27      16.614    
43C                 0:30      17.712    
43C                 0:33      18.531    
43C                 0:36      19.086    
43C                 0:39      19.401    
43C                 0:42      19.500    
43C                 0:45      19.410    
43C                 0:48      19.158    
43C                 0:51      18.769    
43C                 0:54      18.268    
43C                 0:57      17.678    
43C                 1:00      17.019    
43C                 1:03      16.309    
43C                 1:06      15.564    
43C                 1:09      14.797    
43C                 1:12      14.022    
43C                 1:15      13.247    
43C                 1:18      12.482    
43C                 1:21      11.732    
43C                 1:24      11.003    
43C                 1:27      10.300    
43C                 1:30      9.626     
43C                 1:33      8.983     
43C                 1:36      8.372     
43C                 1:39      7.794     
43C                 1:42      7.250     
43C                 1:45      6.739     
43C                 1:48      6.262     
43C                 1:51      5.816     
43C                 1:54      5.401     
43C                 1:57      5.017     
43C                 2:00      4.661     
43C                 2:03      4.332     
43C                 2:06      4.029     
43C                 2:09      3.750     
43C                 2:12      3.494     
43C                 2:15      3.259     
43C                 2:18      3.044     
43C                 2:21      2.847     
43C                 2:24      2.668     
43C                 2:27      2.504     
43C                 2:30      2.355     
43C                 2:33      2.220     
43C                 2:36      2.097     
43C                 2:39      1.985     
43C                 2:42      1.884     
43C                 2:45      1.793     
43C                 2:48      1.710     
43C                 2:51      1.635     
43C                 2:54      1.567     
43C                 2:57      1.506     
43C                 3:00      1.451     
43I                 0:00      0.325     
43I                 0:03      0.527     
43I                 0:06      1.025     
43I                 0:09      1.690     
43I                 0:12      2.428     
43I                 0:15      3.174     
43I                 0:18      3.881     
43I                 0:21      4.521     
43I                 0:24      5.076     
43I                 0:27      5.538     
43I                 0:30      5.904     
43I                 0:33      6.177     
43I                 0:36      6.362     
43I                 0:39      6.467     
43I                 0:42      6.500     
43I                 0:45      6.470     
43I                 0:48      6.386     
43I                 0:51      6.256     
43I                 0:54      6.089     
43I                 0:57      5.893     
43I                 1:00      5.673     
43I                 1:03      5.436     
43I                 1:06      5.188     
43I                 1:09      4.932     
43I                 1:12      4.674     
43I                 1:15      4.416     
43I                 1:18      4.161     
43I                 1:21      3.911     
43I                 1:24      3.668     
43I                 1:27      3.433     
43I                 1:30      3.209     
43I                 1:33      2.994     
43I                 1:36      2.791     
43I                 1:39      2.598     
43I                 1:42      2.417     
43I                 1:45      2.246     
43I                 1:48      2.087     
43I                 1:51      1.939     
43I                 1:54      1.800     
43I                 1:57      1.672     
43I                 2:00      1.554     
43I                 2:03      1.444     
43I                 2:06      1.343     
43I                 2:09      1.250     
43I                 2:12      1.165     
43I                 2:15      1.086     
43I                 2:18      1.015     
43I                 2:21      0.949     
43I                 2:24      0.889     
43I                 2:27      0.835     
43I                 2:30      0.785     
43I                 2:33      0.740     
43I                 2:36      0.699     
43I                 2:39      0.662     
43I                 2:42      0.628     
43I                 2:45      0.598     
43I                 2:48      0.570     
43I                 2:51      0.545     
43I                 2:54      0.522     
43I                 2:57      0.502     
43I                 3:00      0.484     
44C                 0:00      1.300     
44C                 0:03      2.107     
44C                 0:06      4.099     
44C                 0:09      6.759     
44C                 0:12      9.714     
44C                 0:15      12.696    
44C                 0:18      15.526    
44C                 0:21      18.085    
44C                 0:24      20.305    
44C                 0:27      22.151    
44C                 0:30      23.616    
44C                 0:33      24.707    
44C                 0:36      25.448    
44C                 0:39      25.868    
44C                 0:42      26.000    
44C                 0:45      25.880    
44C                 0:48      25.544    
44C                 0:51      25.025    
44C                 0:54      24.358    
44C                 0:57      23.571    
44C                 1:00      22.692    
44C                 1:03      21.745    
44C                 1:06      20.751    
44C                 1:09      19.730    
44C                 1:12      18.696    
44C                 1:15      17.663    
44C                 1:18      16.642    
44C                 1:21      15.642    
44C                 1:24      14.671    
44C                 1:27      13.734    
44C                 1:30      12.835    
44C                 1:33      11.977    
44C                 1:36      11.162    
44C                 1:39      10.392    
44C                 1:42      9.667     
44C                 1:45      8.986     
44C                 1:48      8.349     
44C                 1:51      7.755     
44C                 1:54      7.202     
44C                 1:57      6.689     
44C                 2:00      6.214     
44C                 2:03      5.776     
44C                 2:06      5.372     
44C                 2:09      5.000     
44C                 2:12      4.658     
44C                 2:15      4.345     
44C                 2:18      4.058     
44C                 2:21      3.796     
44C                 2:24      3.557     
44C                 2:27      3.339     
44C                 2:30      3.140     
44C                 2:33      2.960     
44C                 2:36      2.796     
44C                 2:39      2.647     
44C                 2:42      2.512     
44C                 2:45      2.390     
44C                 2:48      2.280     
44C                 2:51      2.180     
44C                 2:54      2.090     
44C                 2:57      2.008     
44C                 3:00      1.935     
45C                 0:00      1.300     
45C                 0:03      2.107     
45C                 0:06      4.099     
45C                 0:09      6.759     
45C                 0:12      9.714     
45C                 0:15      12.696    
45C                 0:18      15.526    
45C                 0:21      18.085    
45C                 0:24      20.305    
45C                 0:27      22.151    
45C                 0:30      23.616    
45C                 0:33      24.707    
45C                 0:36      25.448    
45C                 0:39      25.868    
45C                 0:42      26.000    
45C                 0:45      25.880    
45C                 0:48      25.544    
45C                 0:51      25.025    
45C                 0:54      24.358    
45C                 0:57      23.571    
45C                 1:00      22.692    
45C                 1:03      21.745    
45C                 1:06      20.751    
45C                 1:09      19.730    
45C                 1:12      18.696    
45C                 1:15      17.663    
45C                 1:18      16.642    
45C                 1:21      15.642    
45C                 1:24      14.671    
45C                 1:27      13.734    
45C                 1:30      12.835    
45C                 1:33      11.977    
45C                 1:36      11.162    
45C                 1:39      10.392    
45C                 1:42      9.667     
45C                 1:45      8.986     
45C                 1:48      8.349     
45C                 1:51      7.755     
45C                 1:54      7.202     
45C                 1:57      6.689     
45C                 2:00      6.214     
45C                 2:03      5.776     
45C                 2:06      5.372     
45C                 2:09      5.000     
45C                 2:12      4.658     
45C                 2:15      4.345     
45C                 2:18      4.058     
45C                 2:21      3.796     
45C                 2:24      3.557     
45C                 2:27      3.339     
45C                 2:30      3.140     
45C                 2:33      2.960     
45C                 2:36      2.796     
45C                 2:39      2.647     
45C                 2:42      2.512     
45C                 2:45      2.390     
45C                 2:48      2.280     
45C                 2:51      2.180     
45C                 2:54      2.090     
45C                 2:57      2.008     
45C                 3:00      1.935     
46C                 0:00      0.000     
46C                 0:03      0.000     
46C                 0:06      0.000     
46C                 0:09      0.000     
46C                 0:12      0.000     
46C                 0:15      0.000     
46C                 0:18      0.000     
46C                 0:21      0.000     
46C                 0:24      0.000     
46C                 0:27      0.000     
46C                 0:30      0.000     
46C                 0:33      0.000     
46C                 0:36      0.000     
46C                 0:39      0.000     
46C                 0:42      0.000     
46C                 0:45      0.000     
46C                 0:48      0.000     
46C                 0:51      0.000     
46C                 0:54      0.000     
46C                 0:57      0.000     
46C                 1:00      0.000     
46C                 1:03      0.000     
46C                 1:06      0.000     
46C                 1:09      0.000     
46C                 1:12      0.000     
46C                 1:15      0.000     
46C                 1:18      0.000     
46C                 1:21      0.000     
46C                 1:24      0.000     
46C                 1:27      0.000     
46C                 1:30      0.000     
46C                 1:33      0.000     
46C                 1:36      0.000     
46C                 1:39      0.000     
46C                 1:42      0.000     
46C                 1:45      0.000     
46C                 1:48      0.000     
46C                 1:51      0.000     
46C                 1:54      0.000     
46C                 1:57      0.000     
46C                 2:00      0.000     
46C                 2:03      0.000     
46C                 2:06      0.000     
46C                 2:09      0.000     
46C                 2:12      0.000     
46C                 2:15      0.000     
46C                 2:18      0.000     
46C                 2:21      0.000     
46C                 2:24      0.000     
46C                 2:27      0.000     
46C                 2:30      0.000     
46C                 2:33      0.000     
46C                 2:36      0.000     
46C                 2:39      0.000     
46C                 2:42      0.000     
46C                 2:45      0.000     
46C                 2:48      0.000     
46C                 2:51      0.000     
46C                 2:54      0.000     
46C                 2:57      0.000     
46C                 3:00      0.000     
46I                 0:00      1.800     
46I                 0:03      2.918     
46I                 0:06      5.676     
46I                 0:09      9.359     
46I                 0:12      13.450    
46I                 0:15      17.579    
46I                 0:18      21.497    
46I                 0:21      25.041    
46I                 0:24      28.115    
46I                 0:27      30.671    
46I                 0:30      32.699    
46I                 0:33      34.210    
46I                 0:36      35.236    
46I                 0:39      35.817    
46I                 0:42      36.000    
46I                 0:45      35.834    
46I                 0:48      35.368    
46I                 0:51      34.650    
46I                 0:54      33.726    
46I                 0:57      32.637    
46I                 1:00      31.419    
46I                 1:03      30.108    
46I                 1:06      28.733    
46I                 1:09      27.318    
46I                 1:12      25.886    
46I                 1:15      24.456    
46I                 1:18      23.043    
46I                 1:21      21.659    
46I                 1:24      20.314    
46I                 1:27      19.016    
46I                 1:30      17.771    
46I                 1:33      16.584    
46I                 1:36      15.456    
46I                 1:39      14.389    
46I                 1:42      13.385    
46I                 1:45      12.442    
46I                 1:48      11.560    
46I                 1:51      10.737    
46I                 1:54      9.972     
46I                 1:57      9.262     
46I                 2:00      8.605     
46I                 2:03      7.997     
46I                 2:06      7.438     
46I                 2:09      6.923     
46I                 2:12      6.450     
46I                 2:15      6.016     
46I                 2:18      5.619     
46I                 2:21      5.256     
46I                 2:24      4.925     
46I                 2:27      4.623     
46I                 2:30      4.348     
46I                 2:33      4.098     
46I                 2:36      3.871     
46I                 2:39      3.665     
46I                 2:42      3.478     
46I                 2:45      3.309     
46I                 2:48      3.156     
46I                 2:51      3.018     
46I                 2:54      2.893     
46I                 2:57      2.781     
46I                 3:00      2.679     
47C                 0:00      0.000     
47C                 0:03      0.000     
47C                 0:06      0.000     
47C                 0:09      0.000     
47C                 0:12      0.000     
47C                 0:15      0.000     
47C                 0:18      0.000     
47C                 0:21      0.000     
47C                 0:24      0.000     
47C                 0:27      0.000     
47C                 0:30      0.000     
47C                 0:33      0.000     
47C                 0:36      0.000     
47C                 0:39      0.000     
47C                 0:42      0.000     
47C                 0:45      0.000     
47C                 0:48      0.000     
47C                 0:51      0.000     
47C                 0:54      0.000     
47C                 0:57      0.000     
47C                 1:00      0.000     
47C                 1:03      0.000     
47C                 1:06      0.000     
47C                 1:09      0.000     
47C                 1:12      0.000     
47C                 1:15      0.000     
47C                 1:18      0.000     
47C                 1:21      0.000     
47C                 1:24      0.000     
47C                 1:27      0.000     
47C                 1:30      0.000     
47C                 1:33      0.000     
47C                 1:36      0.000     
47C                 1:39      0.000     
47C                 1:42      0.000     
47C                 1:45      0.000     
47C                 1:48      0.000     
47C                 1:51      0.000     
47C                 1:54      0.000     
47C                 1:57      0.000     
47C                 2:00      0.000     
47C                 2:03      0.000     
47C                 2:06      0.000     
47C                 2:09      0.000     
47C                 2:12      0.000     
47C                 2:15      0.000     
47C                 2:18      0.000     
47C                 2:21      0.000     
47C                 2:24      0.000     
47C                 2:27      0.000     
47C                 2:30      0.000     
47C                 2:33      0.000     
47C                 2:36      0.000     
47C                 2:39      0.000     
47C                 2:42      0.000     
47C                 2:45      0.000     
47C                 2:48      0.000     
47C                 2:51      0.000     
47C                 2:54      0.000     
47C                 2:57      0.000     
47C                 3:00      0.000     
47I                 0:00      1.800     
47I                 0:03      2.918     
47I                 0:06      5.676     
47I                 0:09      9.359     
47I                 0:12      13.450    
47I                 0:15      17.579    
47I                 0:18      21.497    
47I                 0:21      25.041    
47I                 0:24      28.115    
47I                 0:27      30.671    
47I                 0:30      32.699    
47I                 0:33      34.210    
47I                 0:36      35.236    
47I                 0:39      35.817    
47I                 0:42      36.000    
47I                 0:45      35.834    
47I                 0:48      35.368    
47I                 0:51      34.650    
47I                 0:54      33.726    
47I                 0:57      32.637    
47I                 1:00      31.419    
47I                 1:03      30.108    
47I                 1:06      28.733    
47I                 1:09      27.318    
47I                 1:12      25.886    
47I                 1:15      24.456    
47I                 1:18      23.043    
47I                 1:21      21.659    
47I                 1:24      20.314    
47I                 1:27      19.016    
47I                 1:30      17.771    
47I                 1:33      16.584    
47I                 1:36      15.456    
47I                 1:39      14.389    
47I                 1:42      13.385    
47I                 1:45      12.442    
47I                 1:48      11.560    
47I                 1:51      10.737    
47I                 1:54      9.972     
47I                 1:57      9.262     
47I                 2:00      8.605     
47I                 2:03      7.997     
47I                 2:06      7.438     
47I                 2:09      6.923     
47I                 2:12      6.450     
47I                 2:15      6.016     
47I                 2:18      5.619     
47I                 2:21      5.256     
47I                 2:24      4.925     
47I                 2:27      4.623     
47I                 2:30      4.348     
47I                 2:33      4.098     
47I                 2:36      3.871     
47I                 2:39      3.665     
47I                 2:42      3.478     
47I                 2:45      3.309     
47I                 2:48      3.156     
47I                 2:51      3.018     
47I                 2:54      2.893     
47I                 2:57      2.781     
47I                 3:00      2.679     
48C                 0:00      1.800     
48C                 0:03      2.918     
48C                 0:06      5.676     
48C                 0:09      9.359     
48C                 0:12      13.450    
48C                 0:15      17.579    
48C                 0:18      21.497    
48C                 0:21      25.041    
48C                 0:24      28.115    
48C                 0:27      30.671    
48C                 0:30      32.699    
48C                 0:33      34.210    
48C                 0:36      35.236    
48C                 0:39      35.817    
48C                 0:42      36.000    
48C                 0:45      35.834    
48C                 0:48      35.368    
48C                 0:51      34.650    
48C                 0:54      33.726    
48C                 0:57      32.637    
48C                 1:00      31.419    
48C                 1:03      30.108    
48C                 1:06      28.733    
48C                 1:09      27.318    
48C                 1:12      25.886    
48C                 1:15      24.456    
48C                 1:18      23.043    
48C                 1:21      21.659    
48C                 1:24      20.314    
48C                 1:27      19.016    
48C                 1:30      17.771    
48C                 1:33      16.584    
48C                 1:36      15.456    
48C                 1:39      14.389    
48C                 1:42      13.385    
48C                 1:45      12.442    
48C                 1:48      11.560    
48C                 1:51      10.737    
48C                 1:54      9.972     
48C                 1:57      9.262     
48C                 2:00      8.605     
48C                 2:03      7.997     
48C                 2:06      7.438     
48C                 2:09      6.923     
48C                 2:12      6.450     
48C                 2:15      6.016     
48C                 2:18      5.619     
48C                 2:21      5.256     
48C                 2:24      4.925     
48C                 2:27      4.623     
48C                 2:30      4.348     
48C                 2:33      4.098     
48C                 2:36      3.871     
48C                 2:39      3.665     
48C                 2:42      3.478     
48C                 2:45      3.309     
48C                 2:48      3.156     
48C                 2:51      3.018     
48C                 2:54      2.893     
48C                 2:57      2.781     
48C                 3:00      2.679     
49C                 0:00      1.800     
49C                 0:03      2.918     
49C                 0:06      5.676     
49C                 0:09      9.359     
49C                 0:12      13.450    
49C                 0:15      17.579    
49C                 0:18      21.497    
49C                 0:21      25.041    
49C                 0:24      28.115    
49C                 0:27      30.671    
49C                 0:30      32.699    
49C                 0:33      34.210    
49C                 0:36      35.236    
49C                 0:39      35.817    
49C                 0:42      36.000    
49C                 0:45      35.834    
49C                 0:48      35.368    
49C                 0:51      34.650    
49C                 0:54      33.726    
49C                 0:57      32.637    
49C                 1:00      31.419    
49C                 1:03      30.108    
49C                 1:06      28.733    
49C                 1:09      27.318    
49C                 1:12      25.886    
49C                 1:15      24.456    
49C                 1:18      23.043    
49C                 1:21      21.659    
49C                 1:24      20.314    
49C                 1:27      19.016    
49C                 1:30      17.771    
49C                 1:33      16.584    
49C                 1:36      15.456    
49C                 1:39      14.389    
49C                 1:42      13.385    
49C                 1:45      12.442    
49C                 1:48      11.560    
49C                 1:51      10.737    
49C                 1:54      9.972     
49C                 1:57      9.262     
49C                 2:00      8.605     
49C                 2:03      7.997     
49C                 2:06      7.438     
49C                 2:09      6.923     
49C                 2:12      6.450     
49C                 2:15      6.016     
49C                 2:18      5.619     
49C                 2:21      5.256     
49C                 2:24      4.925     
49C                 2:27      4.623     
49C                 2:30      4.348     
49C                 2:33      4.098     
49C                 2:36      3.871     
49C                 2:39      3.665     
49C                 2:42      3.478     
49C                 2:45      3.309     
49C                 2:48      3.156     
49C                 2:51      3.018     
49C                 2:54      2.893     
49C                 2:57      2.781     
49C                 3:00      2.679     
50C                 0:00      1.275     
50C                 0:03      2.067     
50C                 0:06      4.020     
50C                 0:09      6.629     
50C                 0:12      9.527     
50C                 0:15      12.452    
50C                 0:18      15.227    
50C                 0:21      17.738    
50C                 0:24      19.915    
50C                 0:27      21.725    
50C                 0:30      23.161    
50C                 0:33      24.232    
50C                 0:36      24.959    
50C                 0:39      25.371    
50C                 0:42      25.500    
50C                 0:45      25.382    
50C                 0:48      25.052    
50C                 0:51      24.544    
50C                 0:54      23.889    
50C                 0:57      23.118    
50C                 1:00      22.255    
50C                 1:03      21.327    
50C                 1:06      20.352    
50C                 1:09      19.350    
50C                 1:12      18.336    
50C                 1:15      17.323    
50C                 1:18      16.322    
50C                 1:21      15.342    
50C                 1:24      14.389    
50C                 1:27      13.470    
50C                 1:30      12.588    
50C                 1:33      11.747    
50C                 1:36      10.948    
50C                 1:39      10.192    
50C                 1:42      9.481     
50C                 1:45      8.813     
50C                 1:48      8.188     
50C                 1:51      7.606     
50C                 1:54      7.063     
50C                 1:57      6.560     
50C                 2:00      6.095     
50C                 2:03      5.665     
50C                 2:06      5.268     
50C                 2:09      4.903     
50C                 2:12      4.568     
50C                 2:15      4.261     
50C                 2:18      3.980     
50C                 2:21      3.723     
50C                 2:24      3.488     
50C                 2:27      3.275     
50C                 2:30      3.080     
50C                 2:33      2.903     
50C                 2:36      2.742     
50C                 2:39      2.596     
50C                 2:42      2.464     
50C                 2:45      2.344     
50C                 2:48      2.236     
50C                 2:51      2.138     
50C                 2:54      2.049     
50C                 2:57      1.970     
50C                 3:00      1.898     
50I                 0:00      0.425     
50I                 0:03      0.689     
50I                 0:06      1.340     
50I                 0:09      2.210     
50I                 0:12      3.176     
50I                 0:15      4.151     
50I                 0:18      5.076     
50I                 0:21      5.913     
50I                 0:24      6.638     
50I                 0:27      7.242     
50I                 0:30      7.720     
50I                 0:33      8.077     
50I                 0:36      8.320     
50I                 0:39      8.457     
50I                 0:42      8.500     
50I                 0:45      8.461     
50I                 0:48      8.351     
50I                 0:51      8.181     
50I                 0:54      7.963     
50I                 0:57      7.706     
50I                 1:00      7.418     
50I                 1:03      7.109     
50I                 1:06      6.784     
50I                 1:09      6.450     
50I                 1:12      6.112     
50I                 1:15      5.774     
50I                 1:18      5.441     
50I                 1:21      5.114     
50I                 1:24      4.796     
50I                 1:27      4.490     
50I                 1:30      4.196     
50I                 1:33      3.916     
50I                 1:36      3.649     
50I                 1:39      3.397     
50I                 1:42      3.160     
50I                 1:45      2.938     
50I                 1:48      2.729     
50I                 1:51      2.535     
50I                 1:54      2.354     
50I                 1:57      2.187     
50I                 2:00      2.032     
50I                 2:03      1.888     
50I                 2:06      1.756     
50I                 2:09      1.634     
50I                 2:12      1.523     
50I                 2:15      1.420     
50I                 2:18      1.327     
50I                 2:21      1.241     
50I                 2:24      1.163     
50I                 2:27      1.092     
50I                 2:30      1.027     
50I                 2:33      0.968     
50I                 2:36      0.914     
50I                 2:39      0.865     
50I                 2:42      0.821     
50I                 2:45      0.781     
50I                 2:48      0.745     
50I                 2:51      0.713     
50I                 2:54      0.683     
50I                 2:57      0.657     
50I                 3:00      0.633     
51C                 0:00      1.700     
51C                 0:03      2.756     
51C                 0:06      5.360     
51C                 0:09      8.839     
51C                 0:12      12.702    
51C                 0:15      16.603    
51C                 0:18      20.303    
51C                 0:21      23.650    
51C                 0:24      26.553    
51C                 0:27      28.967    
51C                 0:30      30.882    
51C                 0:33      32.310    
51C                 0:36      33.279    
51C                 0:39      33.827    
51C                 0:42      34.000    
51C                 0:45      33.843    
51C                 0:48      33.403    
51C                 0:51      32.725    
51C                 0:54      31.852    
51C                 0:57      30.823    
51C                 1:00      29.674    
51C                 1:03      28.436    
51C                 1:06      27.136    
51C                 1:09      25.800    
51C                 1:12      24.448    
51C                 1:15      23.098    
51C                 1:18      21.763    
51C                 1:21      20.455    
51C                 1:24      19.185    
51C                 1:27      17.960    
51C                 1:30      16.784    
51C                 1:33      15.662    
51C                 1:36      14.597    
51C                 1:39      13.590    
51C                 1:42      12.641    
51C                 1:45      11.751    
51C                 1:48      10.918    
51C                 1:51      10.141    
51C                 1:54      9.418     
51C                 1:57      8.747     
51C                 2:00      8.126     
51C                 2:03      7.553     
51C                 2:06      7.024     
51C                 2:09      6.538     
51C                 2:12      6.091     
51C                 2:15      5.682     
51C                 2:18      5.307     
51C                 2:21      4.964     
51C                 2:24      4.651     
51C                 2:27      4.366     
51C                 2:30      4.106     
51C                 2:33      3.870     
51C                 2:36      3.656     
51C                 2:39      3.461     
51C                 2:42      3.285     
51C                 2:45      3.125     
51C                 2:48      2.981     
51C                 2:51      2.851     
51C                 2:54      2.733     
51C                 2:57      2.626     
51C                 3:00      2.530     
52C                 0:00      2.000     
52C                 0:03      3.242     
52C                 0:06      6.306     
52C                 0:09      10.399    
52C                 0:12      14.944    
52C                 0:15      19.533    
52C                 0:18      23.886    
52C                 0:21      27.824    
52C                 0:24      31.239    
52C                 0:27      34.079    
52C                 0:30      36.332    
52C                 0:33      38.011    
52C                 0:36      39.151    
52C                 0:39      39.797    
52C                 0:42      40.000    
52C                 0:45      39.815    
52C                 0:48      39.298    
52C                 0:51      38.501    
52C                 0:54      37.474    
52C                 0:57      36.263    
52C                 1:00      34.911    
52C                 1:03      33.454    
52C                 1:06      31.925    
52C                 1:09      30.353    
52C                 1:12      28.763    
52C                 1:15      27.174    
52C                 1:18      25.603    
52C                 1:21      24.065    
52C                 1:24      22.571    
52C                 1:27      21.129    
52C                 1:30      19.746    
52C                 1:33      18.426    
52C                 1:36      17.173    
52C                 1:39      15.988    
52C                 1:42      14.872    
52C                 1:45      13.824    
52C                 1:48      12.844    
52C                 1:51      11.930    
52C                 1:54      11.080    
52C                 1:57      10.291    
52C                 2:00      9.561     
52C                 2:03      8.886     
52C                 2:06      8.264     
52C                 2:09      7.692     
52C                 2:12      7.166     
52C                 2:15      6.684     
52C                 2:18      6.243     
52C                 2:21      5.840     
52C                 2:24      5.472     
52C                 2:27      5.137     
52C                 2:30      4.831     
52C                 2:33      4.553     
52C                 2:36      4.301     
52C                 2:39      4.072     
52C                 2:42      3.865     
52C                 2:45      3.677     
52C                 2:48      3.507     
52C                 2:51      3.354     
52C                 2:54      3.215     
52C                 2:57      3.090     
52C                 3:00      2.977     
53C                 0:00      0.800     
53C                 0:03      1.297     
53C                 0:06      2.522     
53C                 0:09      4.160     
53C                 0:12      5.978     
53C                 0:15      7.813     
53C                 0:18      9.554     
53C                 0:21      11.129    
53C                 0:24      12.496    
53C                 0:27      13.632    
53C                 0:30      14.533    
53C                 0:33      15.205    
53C                 0:36      15.661    
53C                 0:39      15.919    
53C                 0:42      16.000    
53C                 0:45      15.926    
53C                 0:48      15.719    
53C                 0:51      15.400    
53C                 0:54      14.989    
53C                 0:57      14.505    
53C                 1:00      13.964    
53C                 1:03      13.381    
53C                 1:06      12.770    
53C                 1:09      12.141    
53C                 1:12      11.505    
53C                 1:15      10.869    
53C                 1:18      10.241    
53C                 1:21      9.626     
53C                 1:24      9.028     
53C                 1:27      8.452     
53C                 1:30      7.898     
53C                 1:33      7.370     
53C                 1:36      6.869     
53C                 1:39      6.395     
53C                 1:42      5.949     
53C                 1:45      5.530     
53C                 1:48      5.138     
53C                 1:51      4.772     
53C                 1:54      4.432     
53C                 1:57      4.116     
53C                 2:00      3.824     
53C                 2:03      3.554     
53C                 2:06      3.306     
53C                 2:09      3.077     
53C                 2:12      2.866     
53C                 2:15      2.674     
53C                 2:18      2.497     
53C                 2:21      2.336     
53C                 2:24      2.189     
53C                 2:27      2.055     
53C                 2:30      1.932     
53C                 2:33      1.821     
53C                 2:36      1.720     
53C                 2:39      1.629     
53C                 2:42      1.546     
53C                 2:45      1.471     
53C                 2:48      1.403     
53C                 2:51      1.341     
53C                 2:54      1.286     
53C                 2:57      1.236     
53C                 3:00      1.191     
54I                 0:00      0.300     
54I                 0:03      0.486     
54I                 0:06      0.946     
54I                 0:09      1.560     
54I                 0:12      2.242     
54I                 0:15      2.930     
54I                 0:18      3.583     
54I                 0:21      4.174     
54I                 0:24      4.686     
54I                 0:27      5.112     
54I                 0:30      5.450     
54I                 0:33      5.702     
54I                 0:36      5.873     
54I                 0:39      5.970     
54I                 0:42      6.000     
54I                 0:45      5.972     
54I                 0:48      5.895     
54I                 0:51      5.775     
54I                 0:54      5.621     
54I                 0:57      5.439     
54I                 1:00      5.237     
54I                 1:03      5.018     
54I                 1:06      4.789     
54I                 1:09      4.553     
54I                 1:12      4.314     
54I                 1:15      4.076     
54I                 1:18      3.840     
54I                 1:21      3.610     
54I                 1:24      3.386     
54I                 1:27      3.169     
54I                 1:30      2.962     
54I                 1:33      2.764     
54I                 1:36      2.576     
54I                 1:39      2.398     
54I                 1:42      2.231     
54I                 1:45      2.074     
54I                 1:48      1.927     
54I                 1:51      1.790     
54I                 1:54      1.662     
54I                 1:57      1.544     
54I                 2:00      1.434     
54I                 2:03      1.333     
54I                 2:06      1.240     
54I                 2:09      1.154     
54I                 2:12      1.075     
54I                 2:15      1.003     
54I                 2:18      0.936     
54I                 2:21      0.876     
54I                 2:24      0.821     
54I                 2:27      0.770     
54I                 2:30      0.725     
54I                 2:33      0.683     
54I                 2:36      0.645     
54I                 2:39      0.611     
54I                 2:42      0.580     
54I                 2:45      0.552     
54I                 2:48      0.526     
54I                 2:51      0.503     
54I                 2:54      0.482     
54I                 2:57      0.463     
54I                 3:00      0.447     
54Ib                0:00      0.900     
54Ib                0:03      1.459     
54Ib                0:06      2.838     
54Ib                0:09      4.680     
54Ib                0:12      6.725     
54Ib                0:15      8.790     
54Ib                0:18      10.749    
54Ib                0:21      12.521    
54Ib                0:24      14.057    
54Ib                0:27      15.336    
54Ib                0:30      16.349    
54Ib                0:33      17.105    
54Ib                0:36      17.618    
54Ib                0:39      17.909    
54Ib                0:42      18.000    
54Ib                0:45      17.917    
54Ib                0:48      17.684    
54Ib                0:51      17.325    
54Ib                0:54      16.863    
54Ib                0:57      16.318    
54Ib                1:00      15.710    
54Ib                1:03      15.054    
54Ib                1:06      14.366    
54Ib                1:09      13.659    
54Ib                1:12      12.943    
54Ib                1:15      12.228    
54Ib                1:18      11.521    
54Ib                1:21      10.829    
54Ib                1:24      10.157    
54Ib                1:27      9.508     
54Ib                1:30      8.886     
54Ib                1:33      8.292     
54Ib                1:36      7.728     
54Ib                1:39      7.195     
54Ib                1:42      6.692     
54Ib                1:45      6.221     
54Ib                1:48      5.780     
54Ib                1:51      5.369     
54Ib                1:54      4.986     
54Ib                1:57      4.631     
54Ib                2:00      4.302     
54Ib                2:03      3.999     
54Ib                2:06      3.719     
54Ib                2:09      3.461     
54Ib                2:12      3.225     
54Ib                2:15      3.008     
54Ib                2:18      2.809     
54Ib                2:21      2.628     
54Ib                2:24      2.462     
54Ib                2:27      2.311     
54Ib                2:30      2.174     
54Ib                2:33      2.049     
54Ib                2:36      1.935     
54Ib                2:39      1.833     
54Ib                2:42      1.739     
54Ib                2:45      1.655     
54Ib                2:48      1.578     
54Ib                2:51      1.509     
54Ib                2:54      1.447     
54Ib                2:57      1.390     
54Ib                3:00      1.340     
55C                 0:00      1.200     
55C                 0:03      1.945     
55C                 0:06      3.784     
55C                 0:09      6.239     
55C                 0:12      8.966     
55C                 0:15      11.720    
55C                 0:18      14.332    
55C                 0:21      16.694    
55C                 0:24      18.743    
55C                 0:27      20.447    
55C                 0:30      21.799    
55C                 0:33      22.807    
55C                 0:36      23.491    
55C                 0:39      23.878    
55C                 0:42      24.000    
55C                 0:45      23.889    
55C                 0:48      23.579    
55C                 0:51      23.100    
55C                 0:54      22.484    
55C                 0:57      21.758    
55C                 1:00      20.946    
55C                 1:03      20.072    
55C                 1:06      19.155    
55C                 1:09      18.212    
55C                 1:12      17.258    
55C                 1:15      16.304    
55C                 1:18      15.362    
55C                 1:21      14.439    
55C                 1:24      13.543    
55C                 1:27      12.677    
55C                 1:30      11.848    
55C                 1:33      11.056    
55C                 1:36      10.304    
55C                 1:39      9.593     
55C                 1:42      8.923     
55C                 1:45      8.295     
55C                 1:48      7.707     
55C                 1:51      7.158     
55C                 1:54      6.648     
55C                 1:57      6.175     
55C                 2:00      5.736     
55C                 2:03      5.332     
55C                 2:06      4.958     
55C                 2:09      4.615     
55C                 2:12      4.300     
55C                 2:15      4.011     
55C                 2:18      3.746     
55C                 2:21      3.504     
55C                 2:24      3.283     
55C                 2:27      3.082     
55C                 2:30      2.899     
55C                 2:33      2.732     
55C                 2:36      2.581     
55C                 2:39      2.443     
55C                 2:42      2.319     
55C                 2:45      2.206     
55C                 2:48      2.104     
55C                 2:51      2.012     
55C                 2:54      1.929     
55C                 2:57      1.854     
55C                 3:00      1.786     
56C                 0:00      1.200     
56C                 0:03      1.945     
56C                 0:06      3.784     
56C                 0:09      6.239     
56C                 0:12      8.966     
56C                 0:15      11.720    
56C                 0:18      14.332    
56C                 0:21      16.694    
56C                 0:24      18.743    
56C                 0:27      20.447    
56C                 0:30      21.799    
56C                 0:33      22.807    
56C                 0:36      23.491    
56C                 0:39      23.878    
56C                 0:42      24.000    
56C                 0:45      23.889    
56C                 0:48      23.579    
56C                 0:51      23.100    
56C                 0:54      22.484    
56C                 0:57      21.758    
56C                 1:00      20.946    
56C                 1:03      20.072    
56C                 1:06      19.155    
56C                 1:09      18.212    
56C                 1:12      17.258    
56C                 1:15      16.304    
56C                 1:18      15.362    
56C                 1:21      14.439    
56C                 1:24      13.543    
56C                 1:27      12.677    
56C                 1:30      11.848    
56C                 1:33      11.056    
56C                 1:36      10.304    
56C                 1:39      9.593     
56C                 1:42      8.923     
56C                 1:45      8.295     
56C                 1:48      7.707     
56C                 1:51      7.158     
56C                 1:54      6.648     
56C                 1:57      6.175     
56C                 2:00      5.736     
56C                 2:03      5.332     
56C                 2:06      4.958     
56C                 2:09      4.615     
56C                 2:12      4.300     
56C                 2:15      4.011     
56C                 2:18      3.746     
56C                 2:21      3.504     
56C                 2:24      3.283     
56C                 2:27      3.082     
56C                 2:30      2.899     
56C                 2:33      2.732     
56C                 2:36      2.581     
56C                 2:39      2.443     
56C                 2:42      2.319     
56C                 2:45      2.206     
56C                 2:48      2.104     
56C                 2:51      2.012     
56C                 2:54      1.929     
56C                 2:57      1.854     
56C                 3:00      1.786     
56I                 0:00      0.400     
56I                 0:03      0.648     
56I                 0:06      1.261     
56I                 0:09      2.080     
56I                 0:12      2.989     
56I                 0:15      3.907     
56I                 0:18      4.777     
56I                 0:21      5.565     
56I                 0:24      6.248     
56I                 0:27      6.816     
56I                 0:30      7.266     
56I                 0:33      7.602     
56I                 0:36      7.830     
56I                 0:39      7.959     
56I                 0:42      8.000     
56I                 0:45      7.963     
56I                 0:48      7.860     
56I                 0:51      7.700     
56I                 0:54      7.495     
56I                 0:57      7.253     
56I                 1:00      6.982     
56I                 1:03      6.691     
56I                 1:06      6.385     
56I                 1:09      6.071     
56I                 1:12      5.753     
56I                 1:15      5.435     
56I                 1:18      5.121     
56I                 1:21      4.813     
56I                 1:24      4.514     
56I                 1:27      4.226     
56I                 1:30      3.949     
56I                 1:33      3.685     
56I                 1:36      3.435     
56I                 1:39      3.198     
56I                 1:42      2.974     
56I                 1:45      2.765     
56I                 1:48      2.569     
56I                 1:51      2.386     
56I                 1:54      2.216     
56I                 1:57      2.058     
56I                 2:00      1.912     
56I                 2:03      1.777     
56I                 2:06      1.653     
56I                 2:09      1.538     
56I                 2:12      1.433     
56I                 2:15      1.337     
56I                 2:18      1.249     
56I                 2:21      1.168     
56I                 2:24      1.094     
56I                 2:27      1.027     
56I                 2:30      0.966     
56I                 2:33      0.911     
56I                 2:36      0.860     
56I                 2:39      0.814     
56I                 2:42      0.773     
56I                 2:45      0.735     
56I                 2:48      0.701     
56I                 2:51      0.671     
56I                 2:54      0.643     
56I                 2:57      0.618     
56I                 3:00      0.595     
57C                 0:00      0.000     
57C                 0:03      0.000     
57C                 0:06      0.000     
57C                 0:09      0.000     
57C                 0:12      0.000     
57C                 0:15      0.000     
57C                 0:18      0.000     
57C                 0:21      0.000     
57C                 0:24      0.000     
57C                 0:27      0.000     
57C                 0:30      0.000     
57C                 0:33      0.000     
57C                 0:36      0.000     
57C                 0:39      0.000     
57C                 0:42      0.000     
57C                 0:45      0.000     
57C                 0:48      0.000     
57C                 0:51      0.000     
57C                 0:54      0.000     
57C                 0:57      0.000     
57C                 1:00      0.000     
57C                 1:03      0.000     
57C                 1:06      0.000     
57C                 1:09      0.000     
57C                 1:12      0.000     
57C                 1:15      0.000     
57C                 1:18      0.000     
57C                 1:21      0.000     
57C                 1:24      0.000     
57C                 1:27      0.000     
57C                 1:30      0.000     
57C                 1:33      0.000     
57C                 1:36      0.000     
57C                 1:39      0.000     
57C                 1:42      0.000     
57C                 1:45      0.000     
57C                 1:48      0.000     
57C                 1:51      0.000     
57C                 1:54      0.000     
57C                 1:57      0.000     
57C                 2:00      0.000     
57C                 2:03      0.000     
57C                 2:06      0.000     
57C                 2:09      0.000     
57C                 2:12      0.000     
57C                 2:15      0.000     
57C                 2:18      0.000     
57C                 2:21      0.000     
57C                 2:24      0.000     
57C                 2:27      0.000     
57C                 2:30      0.000     
57C                 2:33      0.000     
57C                 2:36      0.000     
57C                 2:39      0.000     
57C                 2:42      0.000     
57C                 2:45      0.000     
57C                 2:48      0.000     
57C                 2:51      0.000     
57C                 2:54      0.000     
57C                 2:57      0.000     
57C                 3:00      0.000     
57I                 0:00      1.700     
57I                 0:03      2.756     
57I                 0:06      5.360     
57I                 0:09      8.839     
57I                 0:12      12.702    
57I                 0:15      16.603    
57I                 0:18      20.303    
57I                 0:21      23.650    
57I                 0:24      26.553    
57I                 0:27      28.967    
57I                 0:30      30.882    
57I                 0:33      32.310    
57I                 0:36      33.279    
57I                 0:39      33.827    
57I                 0:42      34.000    
57I                 0:45      33.843    
57I                 0:48      33.403    
57I                 0:51      32.725    
57I                 0:54      31.852    
57I                 0:57      30.823    
57I                 1:00      29.674    
57I                 1:03      28.436    
57I                 1:06      27.136    
57I                 1:09      25.800    
57I                 1:12      24.448    
57I                 1:15      23.098    
57I                 1:18      21.763    
57I                 1:21      20.455    
57I                 1:24      19.185    
57I                 1:27      17.960    
57I                 1:30      16.784    
57I                 1:33      15.662    
57I                 1:36      14.597    
57I                 1:39      13.590    
57I                 1:42      12.641    
57I                 1:45      11.751    
57I                 1:48      10.918    
57I                 1:51      10.141    
57I                 1:54      9.418     
57I                 1:57      8.747     
57I                 2:00      8.126     
57I                 2:03      7.553     
57I                 2:06      7.024     
57I                 2:09      6.538     
57I                 2:12      6.091     
57I                 2:15      5.682     
57I                 2:18      5.307     
57I                 2:21      4.964     
57I                 2:24      4.651     
57I                 2:27      4.366     
57I                 2:30      4.106     
57I                 2:33      3.870     
57I                 2:36      3.656     
57I                 2:39      3.461     
57I                 2:42      3.285     
57I                 2:45      3.125     
57I                 2:48      2.981     
57I                 2:51      2.851     
57I                 2:54      2.733     
57I                 2:57      2.626     
57I                 3:00      2.530     
58C                 0:00      0.600     
58C                 0:03      0.973     
58C                 0:06      1.892     
58C                 0:09      3.120     
58C                 0:12      4.483     
58C                 0:15      5.860     
58C                 0:18      7.166     
58C                 0:21      8.347     
58C                 0:24      9.372     
58C                 0:27      10.224    
58C                 0:30      10.900    
58C                 0:33      11.403    
58C                 0:36      11.745    
58C                 0:39      11.939    
58C                 0:42      12.000    
58C                 0:45      11.945    
58C                 0:48      11.789    
58C                 0:51      11.550    
58C                 0:54      11.242    
58C                 0:57      10.879    
58C                 1:00      10.473    
58C                 1:03      10.036    
58C                 1:06      9.578     
58C                 1:09      9.106     
58C                 1:12      8.629     
58C                 1:15      8.152     
58C                 1:18      7.681     
58C                 1:21      7.220     
58C                 1:24      6.771     
58C                 1:27      6.339     
58C                 1:30      5.924     
58C                 1:33      5.528     
58C                 1:36      5.152     
58C                 1:39      4.796     
58C                 1:42      4.462     
58C                 1:45      4.147     
58C                 1:48      3.853     
58C                 1:51      3.579     
58C                 1:54      3.324     
58C                 1:57      3.087     
58C                 2:00      2.868     
58C                 2:03      2.666     
58C                 2:06      2.479     
58C                 2:09      2.308     
58C                 2:12      2.150     
58C                 2:15      2.005     
58C                 2:18      1.873     
58C                 2:21      1.752     
58C                 2:24      1.642     
58C                 2:27      1.541     
58C                 2:30      1.449     
58C                 2:33      1.366     
58C                 2:36      1.290     
58C                 2:39      1.222     
58C                 2:42      1.159     
58C                 2:45      1.103     
58C                 2:48      1.052     
58C                 2:51      1.006     
58C                 2:54      0.964     
58C                 2:57      0.927     
58C                 3:00      0.893     
58I                 0:00      0.200     
58I                 0:03      0.324     
58I                 0:06      0.631     
58I                 0:09      1.040     
58I                 0:12      1.494     
58I                 0:15      1.953     
58I                 0:18      2.389     
58I                 0:21      2.782     
58I                 0:24      3.124     
58I                 0:27      3.408     
58I                 0:30      3.633     
58I                 0:33      3.801     
58I                 0:36      3.915     
58I                 0:39      3.980     
58I                 0:42      4.000     
58I                 0:45      3.982     
58I                 0:48      3.930     
58I                 0:51      3.850     
58I                 0:54      3.747     
58I                 0:57      3.626     
58I                 1:00      3.491     
58I                 1:03      3.345     
58I                 1:06      3.193     
58I                 1:09      3.035     
58I                 1:12      2.876     
58I                 1:15      2.717     
58I                 1:18      2.560     
58I                 1:21      2.407     
58I                 1:24      2.257     
58I                 1:27      2.113     
58I                 1:30      1.975     
58I                 1:33      1.843     
58I                 1:36      1.717     
58I                 1:39      1.599     
58I                 1:42      1.487     
58I                 1:45      1.382     
58I                 1:48      1.284     
58I                 1:51      1.193     
58I                 1:54      1.108     
58I                 1:57      1.029     
58I                 2:00      0.956     
58I                 2:03      0.889     
58I                 2:06      0.826     
58I                 2:09      0.769     
58I                 2:12      0.717     
58I                 2:15      0.668     
58I                 2:18      0.624     
58I                 2:21      0.584     
58I                 2:24      0.547     
58I                 2:27      0.514     
58I                 2:30      0.483     
58I                 2:33      0.455     
58I                 2:36      0.430     
58I                 2:39      0.407     
58I                 2:42      0.386     
58I                 2:45      0.368     
58I                 2:48      0.351     
58I                 2:51      0.335     
58I                 2:54      0.321     
58I                 2:57      0.309     
58I                 3:00      0.298     
59C                 0:00      1.200     
59C                 0:03      1.945     
59C                 0:06      3.784     
59C                 0:09      6.239     
59C                 0:12      8.966     
59C                 0:15      11.720    
59C                 0:18      14.332    
59C                 0:21      16.694    
59C                 0:24      18.743    
59C                 0:27      20.447    
59C                 0:30      21.799    
59C                 0:33      22.807    
59C                 0:36      23.491    
59C                 0:39      23.878    
59C                 0:42      24.000    
59C                 0:45      23.889    
59C                 0:48      23.579    
59C                 0:51      23.100    
59C                 0:54      22.484    
59C                 0:57      21.758    
59C                 1:00      20.946    
59C                 1:03      20.072    
59C                 1:06      19.155    
59C                 1:09      18.212    
59C                 1:12      17.258    
59C                 1:15      16.304    
59C                 1:18      15.362    
59C                 1:21      14.439    
59C                 1:24      13.543    
59C                 1:27      12.677    
59C                 1:30      11.848    
59C                 1:33      11.056    
59C                 1:36      10.304    
59C                 1:39      9.593     
59C                 1:42      8.923     
59C                 1:45      8.295     
59C                 1:48      7.707     
59C                 1:51      7.158     
59C                 1:54      6.648     
59C                 1:57      6.175     
59C                 2:00      5.736     
59C                 2:03      5.332     
59C                 2:06      4.958     
59C                 2:09      4.615     
59C                 2:12      4.300     
59C                 2:15      4.011     
59C                 2:18      3.746     
59C                 2:21      3.504     
59C                 2:24      3.283     
59C                 2:27      3.082     
59C                 2:30      2.899     
59C                 2:33      2.732     
59C                 2:36      2.581     
59C                 2:39      2.443     
59C                 2:42      2.319     
59C                 2:45      2.206     
59C                 2:48      2.104     
59C                 2:51      2.012     
59C                 2:54      1.929     
59C                 2:57      1.854     
59C                 3:00      1.786     
59I                 0:00      0.400     
59I                 0:03      0.648     
59I                 0:06      1.261     
59I                 0:09      2.080     
59I                 0:12      2.989     
59I                 0:15      3.907     
59I                 0:18      4.777     
59I                 0:21      5.565     
59I                 0:24      6.248     
59I                 0:27      6.816     
59I                 0:30      7.266     
59I                 0:33      7.602     
59I                 0:36      7.830     
59I                 0:39      7.959     
59I                 0:42      8.000     
59I                 0:45      7.963     
59I                 0:48      7.860     
59I                 0:51      7.700     
59I                 0:54      7.495     
59I                 0:57      7.253     
59I                 1:00      6.982     
59I                 1:03      6.691     
59I                 1:06      6.385     
59I                 1:09      6.071     
59I                 1:12      5.753     
59I                 1:15      5.435     
59I                 1:18      5.121     
59I                 1:21      4.813     
59I                 1:24      4.514     
59I                 1:27      4.226     
59I                 1:30      3.949     
59I                 1:33      3.685     
59I                 1:36      3.435     
59I                 1:39      3.198     
59I                 1:42      2.974     
59I                 1:45      2.765     
59I                 1:48      2.569     
59I                 1:51      2.386     
59I                 1:54      2.216     
59I                 1:57      2.058     
59I                 2:00      1.912     
59I                 2:03      1.777     
59I                 2:06      1.653     
59I                 2:09      1.538     
59I                 2:12      1.433     
59I                 2:15      1.337     
59I                 2:18      1.249     
59I                 2:21      1.168     
59I                 2:24      1.094     
59I                 2:27      1.027     
59I                 2:30      0.966     
59I                 2:33      0.911     
59I                 2:36      0.860     
59I                 2:39      0.814     
59I                 2:42      0.773     
59I                 2:45      0.735     
59I                 2:48      0.701     
59I                 2:51      0.671     
59I                 2:54      0.643     
59I                 2:57      0.618     
59I                 3:00      0.595     
60C                 0:00      -0.000    
60C                 0:03      -0.000    
60C                 0:06      -0.000    
60C                 0:09      -0.000    
60C                 0:12      -0.000    
60C                 0:15      -0.000    
60C                 0:18      -0.000    
60C                 0:21      -0.000    
60C                 0:24      -0.000    
60C                 0:27      -0.000    
60C                 0:30      -0.000    
60C                 0:33      -0.000    
60C                 0:36      -0.000    
60C                 0:39      -0.000    
60C                 0:42      -0.000    
60C                 0:45      -0.000    
60C                 0:48      -0.000    
60C                 0:51      -0.000    
60C                 0:54      -0.000    
60C                 0:57      -0.000    
60C                 1:00      -0.000    
60C                 1:03      -0.000    
60C                 1:06      -0.000    
60C                 1:09      -0.000    
60C                 1:12      -0.000    
60C                 1:15      -0.000    
60C                 1:18      -0.000    
60C                 1:21      -0.000    
60C                 1:24      -0.000    
60C                 1:27      -0.000    
60C                 1:30      -0.000    
60C                 1:33      -0.000    
60C                 1:36      -0.000    
60C                 1:39      -0.000    
60C                 1:42      -0.000    
60C                 1:45      -0.000    
60C                 1:48      -0.000    
60C                 1:51      -0.000    
60C                 1:54      -0.000    
60C                 1:57      -0.000    
60C                 2:00      -0.000    
60C                 2:03      -0.000    
60C                 2:06      -0.000    
60C                 2:09      -0.000    
60C                 2:12      -0.000    
60C                 2:15      -0.000    
60C                 2:18      -0.000    
60C                 2:21      -0.000    
60C                 2:24      -0.000    
60C                 2:27      -0.000    
60C                 2:30      -0.000    
60C                 2:33      -0.000    
60C                 2:36      -0.000    
60C                 2:39      -0.000    
60C                 2:42      -0.000    
60C                 2:45      -0.000    
60C                 2:48      -0.000    
60C                 2:51      -0.000    
60C                 2:54      -0.000    
60C                 2:57      -0.000    
60C                 3:00      -0.000    
60I                 0:00      1.800     
60I                 0:03      2.918     
60I                 0:06      5.676     
60I                 0:09      9.359     
60I                 0:12      13.450    
60I                 0:15      17.579    
60I                 0:18      21.497    
60I                 0:21      25.041    
60I                 0:24      28.115    
60I                 0:27      30.671    
60I                 0:30      32.699    
60I                 0:33      34.210    
60I                 0:36      35.236    
60I                 0:39      35.817    
60I                 0:42      36.000    
60I                 0:45      35.834    
60I                 0:48      35.368    
60I                 0:51      34.650    
60I                 0:54      33.726    
60I                 0:57      32.637    
60I                 1:00      31.419    
60I                 1:03      30.108    
60I                 1:06      28.733    
60I                 1:09      27.318    
60I                 1:12      25.886    
60I                 1:15      24.456    
60I                 1:18      23.043    
60I                 1:21      21.659    
60I                 1:24      20.314    
60I                 1:27      19.016    
60I                 1:30      17.771    
60I                 1:33      16.584    
60I                 1:36      15.456    
60I                 1:39      14.389    
60I                 1:42      13.385    
60I                 1:45      12.442    
60I                 1:48      11.560    
60I                 1:51      10.737    
60I                 1:54      9.972     
60I                 1:57      9.262     
60I                 2:00      8.605     
60I                 2:03      7.997     
60I                 2:06      7.438     
60I                 2:09      6.923     
60I                 2:12      6.450     
60I                 2:15      6.016     
60I                 2:18      5.619     
60I                 2:21      5.256     
60I                 2:24      4.925     
60I                 2:27      4.623     
60I                 2:30      4.348     
60I                 2:33      4.098     
60I                 2:36      3.871     
60I                 2:39      3.665     
60I                 2:42      3.478     
60I                 2:45      3.309     
60I                 2:48      3.156     
60I                 2:51      3.018     
60I                 2:54      2.893     
60I                 2:57      2.781     
60I                 3:00      2.679     
61C                 0:00      1.300     
61C                 0:03      2.107     
61C                 0:06      4.099     
61C                 0:09      6.759     
61C                 0:12      9.714     
61C                 0:15      12.696    
61C                 0:18      15.526    
61C                 0:21      18.085    
61C                 0:24      20.305    
61C                 0:27      22.151    
61C                 0:30      23.616    
61C                 0:33      24.707    
61C                 0:36      25.448    
61C                 0:39      25.868    
61C                 0:42      26.000    
61C                 0:45      25.880    
61C                 0:48      25.544    
61C                 0:51      25.025    
61C                 0:54      24.358    
61C                 0:57      23.571    
61C                 1:00      22.692    
61C                 1:03      21.745    
61C                 1:06      20.751    
61C                 1:09      19.730    
61C                 1:12      18.696    
61C                 1:15      17.663    
61C                 1:18      16.642    
61C                 1:21      15.642    
61C                 1:24      14.671    
61C                 1:27      13.734    
61C                 1:30      12.835    
61C                 1:33      11.977    
61C                 1:36      11.162    
61C                 1:39      10.392    
61C                 1:42      9.667     
61C                 1:45      8.986     
61C                 1:48      8.349     
61C                 1:51      7.755     
61C                 1:54      7.202     
61C                 1:57      6.689     
61C                 2:00      6.214     
61C                 2:03      5.776     
61C                 2:06      5.372     
61C                 2:09      5.000     
61C                 2:12      4.658     
61C                 2:15      4.345     
61C                 2:18      4.058     
61C                 2:21      3.796     
61C                 2:24      3.557     
61C                 2:27      3.339     
61C                 2:30      3.140     
61C                 2:33      2.960     
61C                 2:36      2.796     
61C                 2:39      2.647     
61C                 2:42      2.512     
61C                 2:45      2.390     
61C                 2:48      2.280     
61C                 2:51      2.180     
61C                 2:54      2.090     
61C                 2:57      2.008     
61C                 3:00      1.935     
62C                 0:00      0.000     
62C                 0:03      0.000     
62C                 0:06      0.000     
62C                 0:09      0.000     
62C                 0:12      0.000     
62C                 0:15      0.000     
62C                 0:18      0.000     
62C                 0:21      0.000     
62C                 0:24      0.000     
62C                 0:27      0.000     
62C                 0:30      0.000     
62C                 0:33      0.000     
62C                 0:36      0.000     
62C                 0:39      0.000     
62C                 0:42      0.000     
62C                 0:45      0.000     
62C                 0:48      0.000     
62C                 0:51      0.000     
62C                 0:54      0.000     
62C                 0:57      0.000     
62C                 1:00      0.000     
62C                 1:03      0.000     
62C                 1:06      0.000     
62C                 1:09      0.000     
62C                 1:12      0.000     
62C                 1:15      0.000     
62C                 1:18      0.000     
62C                 1:21      0.000     
62C                 1:24      0.000     
62C                 1:27      0.000     
62C                 1:30      0.000     
62C                 1:33      0.000     
62C                 1:36      0.000     
62C                 1:39      0.000     
62C                 1:42      0.000     
62C                 1:45      0.000     
62C                 1:48      0.000     
62C                 1:51      0.000     
62C                 1:54      0.000     
62C                 1:57      0.000     
62C                 2:00      0.000     
62C                 2:03      0.000     
62C                 2:06      0.000     
62C                 2:09      0.000     
62C                 2:12      0.000     
62C                 2:15      0.000     
62C                 2:18      0.000     
62C                 2:21      0.000     
62C                 2:24      0.000     
62C                 2:27      0.000     
62C                 2:30      0.000     
62C                 2:33      0.000     
62C                 2:36      0.000     
62C                 2:39      0.000     
62C                 2:42      0.000     
62C                 2:45      0.000     
62C                 2:48      0.000     
62C                 2:51      0.000     
62C                 2:54      0.000     
62C                 2:57      0.000     
62C                 3:00      0.000     
62I                 0:00      1.300     
62I                 0:03      2.107     
62I                 0:06      4.099     
62I                 0:09      6.759     
62I                 0:12      9.714     
62I                 0:15      12.696    
62I                 0:18      15.526    
62I                 0:21      18.085    
62I                 0:24      20.305    
62I                 0:27      22.151    
62I                 0:30      23.616    
62I                 0:33      24.707    
62I                 0:36      25.448    
62I                 0:39      25.868    
62I                 0:42      26.000    
62I                 0:45      25.880    
62I                 0:48      25.544    
62I                 0:51      25.025    
62I                 0:54      24.358    
62I                 0:57      23.571    
62I                 1:00      22.692    
62I                 1:03      21.745    
62I                 1:06      20.751    
62I                 1:09      19.730    
62I                 1:12      18.696    
62I                 1:15      17.663    
62I                 1:18      16.642    
62I                 1:21      15.642    
62I                 1:24      14.671    
62I                 1:27      13.734    
62I                 1:30      12.835    
62I                 1:33      11.977    
62I                 1:36      11.162    
62I                 1:39      10.392    
62I                 1:42      9.667     
62I                 1:45      8.986     
62I                 1:48      8.349     
62I                 1:51      7.755     
62I                 1:54      7.202     
62I                 1:57      6.689     
62I                 2:00      6.214     
62I                 2:03      5.776     
62I                 2:06      5.372     
62I                 2:09      5.000     
62I                 2:12      4.658     
62I                 2:15      4.345     
62I                 2:18      4.058     
62I                 2:21      3.796     
62I                 2:24      3.557     
62I                 2:27      3.339     
62I                 2:30      3.140     
62I                 2:33      2.960     
62I                 2:36      2.796     
62I                 2:39      2.647     
62I                 2:42      2.512     
62I                 2:45      2.390     
62I                 2:48      2.280     
62I                 2:51      2.180     
62I                 2:54      2.090     
62I                 2:57      2.008     
62I                 3:00      1.935     
63C                 0:00      0.975     
63C                 0:03      1.580     
63C                 0:06      3.074     
63C                 0:09      5.070     
63C                 0:12      7.285     
63C                 0:15      9.522     
63C                 0:18      11.644    
63C                 0:21      13.564    
63C                 0:24      15.229    
63C                 0:27      16.614    
63C                 0:30      17.712    
63C                 0:33      18.531    
63C                 0:36      19.086    
63C                 0:39      19.401    
63C                 0:42      19.500    
63C                 0:45      19.410    
63C                 0:48      19.158    
63C                 0:51      18.769    
63C                 0:54      18.268    
63C                 0:57      17.678    
63C                 1:00      17.019    
63C                 1:03      16.309    
63C                 1:06      15.564    
63C                 1:09      14.797    
63C                 1:12      14.022    
63C                 1:15      13.247    
63C                 1:18      12.482    
63C                 1:21      11.732    
63C                 1:24      11.003    
63C                 1:27      10.300    
63C                 1:30      9.626     
63C                 1:33      8.983     
63C                 1:36      8.372     
63C                 1:39      7.794     
63C                 1:42      7.250     
63C                 1:45      6.739     
63C                 1:48      6.262     
63C                 1:51      5.816     
63C                 1:54      5.401     
63C                 1:57      5.017     
63C                 2:00      4.661     
63C                 2:03      4.332     
63C                 2:06      4.029     
63C                 2:09      3.750     
63C                 2:12      3.494     
63C                 2:15      3.259     
63C                 2:18      3.044     
63C                 2:21      2.847     
63C                 2:24      2.668     
63C                 2:27      2.504     
63C                 2:30      2.355     
63C                 2:33      2.220     
63C                 2:36      2.097     
63C                 2:39      1.985     
63C                 2:42      1.884     
63C                 2:45      1.793     
63C                 2:48      1.710     
63C                 2:51      1.635     
63C                 2:54      1.567     
63C                 2:57      1.506     
63C                 3:00      1.451     
63I                 0:00      0.325     
63I                 0:03      0.527     
63I                 0:06      1.025     
63I                 0:09      1.690     
63I                 0:12      2.428     
63I                 0:15      3.174     
63I                 0:18      3.881     
63I                 0:21      4.521     
63I                 0:24      5.076     
63I                 0:27      5.538     
63I                 0:30      5.904     
63I                 0:33      6.177     
63I                 0:36      6.362     
63I                 0:39      6.467     
63I                 0:42      6.500     
63I                 0:45      6.470     
63I                 0:48      6.386     
63I                 0:51      6.256     
63I                 0:54      6.089     
63I                 0:57      5.893     
63I                 1:00      5.673     
63I                 1:03      5.436     
63I                 1:06      5.188     
63I                 1:09      4.932     
63I                 1:12      4.674     
63I                 1:15      4.416     
63I                 1:18      4.161     
63I                 1:21      3.911     
63I                 1:24      3.668     
63I                 1:27      3.433     
63I                 1:30      3.209     
63I                 1:33      2.994     
63I                 1:36      2.791     
63I                 1:39      2.598     
63I                 1:42      2.417     
63I                 1:45      2.246     
63I                 1:48      2.087     
63I                 1:51      1.939     
63I                 1:54      1.800     
63I                 1:57      1.672     
63I                 2:00      1.554     
63I                 2:03      1.444     
63I                 2:06      1.343     
63I                 2:09      1.250     
63I                 2:12      1.165     
63I                 2:15      1.086     
63I                 2:18      1.015     
63I                 2:21      0.949     
63I                 2:24      0.889     
63I                 2:27      0.835     
63I                 2:30      0.785     
63I                 2:33      0.740     
63I                 2:36      0.699     
63I                 2:39      0.662     
63I                 2:42      0.628     
63I                 2:45      0.598     
63I                 2:48      0.570     
63I                 2:51      0.545     
63I                 2:54      0.522     
63I                 2:57      0.502     
63I                 3:00      0.484     
64C                 0:00      0.975     
64C                 0:03      1.580     
64C                 0:06      3.074     
64C                 0:09      5.070     
64C                 0:12      7.285     
64C                 0:15      9.522     
64C                 0:18      11.644    
64C                 0:21      13.564    
64C                 0:24      15.229    
64C                 0:27      16.614    
64C                 0:30      17.712    
64C                 0:33      18.531    
64C                 0:36      19.086    
64C                 0:39      19.401    
64C                 0:42      19.500    
64C                 0:45      19.410    
64C                 0:48      19.158    
64C                 0:51      18.769    
64C                 0:54      18.268    
64C                 0:57      17.678    
64C                 1:00      17.019    
64C                 1:03      16.309    
64C                 1:06      15.564    
64C                 1:09      14.797    
64C                 1:12      14.022    
64C                 1:15      13.247    
64C                 1:18      12.482    
64C                 1:21      11.732    
64C                 1:24      11.003    
64C                 1:27      10.300    
64C                 1:30      9.626     
64C                 1:33      8.983     
64C                 1:36      8.372     
64C                 1:39      7.794     
64C                 1:42      7.250     
64C                 1:45      6.739     
64C                 1:48      6.262     
64C                 1:51      5.816     
64C                 1:54      5.401     
64C                 1:57      5.017     
64C                 2:00      4.661     
64C                 2:03      4.332     
64C                 2:06      4.029     
64C                 2:09      3.750     
64C                 2:12      3.494     
64C                 2:15      3.259     
64C                 2:18      3.044     
64C                 2:21      2.847     
64C                 2:24      2.668     
64C                 2:27      2.504     
64C                 2:30      2.355     
64C                 2:33      2.220     
64C                 2:36      2.097     
64C                 2:39      1.985     
64C                 2:42      1.884     
64C                 2:45      1.793     
64C                 2:48      1.710     
64C                 2:51      1.635     
64C                 2:54      1.567     
64C                 2:57      1.506     
64C                 3:00      1.451     
64I                 0:00      0.325     
64I                 0:03      0.527     
64I                 0:06      1.025     
64I                 0:09      1.690     
64I                 0:12      2.428     
64I                 0:15      3.174     
64I                 0:18      3.881     
64I                 0:21      4.521     
64I                 0:24      5.076     
64I                 0:27      5.538     
64I                 0:30      5.904     
64I                 0:33      6.177     
64I                 0:36      6.362     
64I                 0:39      6.467     
64I                 0:42      6.500     
64I                 0:45      6.470     
64I                 0:48      6.386     
64I                 0:51      6.256     
64I                 0:54      6.089     
64I                 0:57      5.893     
64I                 1:00      5.673     
64I                 1:03      5.436     
64I                 1:06      5.188     
64I                 1:09      4.932     
64I                 1:12      4.674     
64I                 1:15      4.416     
64I                 1:18      4.161     
64I                 1:21      3.911     
64I                 1:24      3.668     
64I                 1:27      3.433     
64I                 1:30      3.209     
64I                 1:33      2.994     
64I                 1:36      2.791     
64I                 1:39      2.598     
64I                 1:42      2.417     
64I                 1:45      2.246     
64I                 1:48      2.087     
64I                 1:51      1.939     
64I                 1:54      1.800     
64I                 1:57      1.672     
64I                 2:00      1.554     
64I                 2:03      1.444     
64I                 2:06      1.343     
64I                 2:09      1.250     
64I                 2:12      1.165     
64I                 2:15      1.086     
64I                 2:18      1.015     
64I                 2:21      0.949     
64I                 2:24      0.889     
64I                 2:27      0.835     
64I                 2:30      0.785     
64I                 2:33      0.740     
64I                 2:36      0.699     
64I                 2:39      0.662     
64I                 2:42      0.628     
64I                 2:45      0.598     
64I                 2:48      0.570     
64I                 2:51      0.545     
64I                 2:54      0.522     
64I                 2:57      0.502     
64I                 3:00      0.484     
65C                 0:00      0.975     
65C                 0:03      1.580     
65C                 0:06      3.074     
65C                 0:09      5.070     
65C                 0:12      7.285     
65C                 0:15      9.522     
65C                 0:18      11.644    
65C                 0:21      13.564    
65C                 0:24      15.229    
65C                 0:27      16.614    
65C                 0:30      17.712    
65C                 0:33      18.531    
65C                 0:36      19.086    
65C                 0:39      19.401    
65C                 0:42      19.500    
65C                 0:45      19.410    
65C                 0:48      19.158    
65C                 0:51      18.769    
65C                 0:54      18.268    
65C                 0:57      17.678    
65C                 1:00      17.019    
65C                 1:03      16.309    
65C                 1:06      15.564    
65C                 1:09      14.797    
65C                 1:12      14.022    
65C                 1:15      13.247    
65C                 1:18      12.482    
65C                 1:21      11.732    
65C                 1:24      11.003    
65C                 1:27      10.300    
65C                 1:30      9.626     
65C                 1:33      8.983     
65C                 1:36      8.372     
65C                 1:39      7.794     
65C                 1:42      7.250     
65C                 1:45      6.739     
65C                 1:48      6.262     
65C                 1:51      5.816     
65C                 1:54      5.401     
65C                 1:57      5.017     
65C                 2:00      4.661     
65C                 2:03      4.332     
65C                 2:06      4.029     
65C                 2:09      3.750     
65C                 2:12      3.494     
65C                 2:15      3.259     
65C                 2:18      3.044     
65C                 2:21      2.847     
65C                 2:24      2.668     
65C                 2:27      2.504     
65C                 2:30      2.355     
65C                 2:33      2.220     
65C                 2:36      2.097     
65C                 2:39      1.985     
65C                 2:42      1.884     
65C                 2:45      1.793     
65C                 2:48      1.710     
65C                 2:51      1.635     
65C                 2:54      1.567     
65C                 2:57      1.506     
65C                 3:00      1.451     
65I                 0:00      0.325     
65I                 0:03      0.527     
65I                 0:06      1.025     
65I                 0:09      1.690     
65I                 0:12      2.428     
65I                 0:15      3.174     
65I                 0:18      3.881     
65I                 0:21      4.521     
65I                 0:24      5.076     
65I                 0:27      5.538     
65I                 0:30      5.904     
65I                 0:33      6.177     
65I                 0:36      6.362     
65I                 0:39      6.467     
65I                 0:42      6.500     
65I                 0:45      6.470     
65I                 0:48      6.386     
65I                 0:51      6.256     
65I                 0:54      6.089     
65I                 0:57      5.893     
65I                 1:00      5.673     
65I                 1:03      5.436     
65I                 1:06      5.188     
65I                 1:09      4.932     
65I                 1:12      4.674     
65I                 1:15      4.416     
65I                 1:18      4.161     
65I                 1:21      3.911     
65I                 1:24      3.668     
65I                 1:27      3.433     
65I                 1:30      3.209     
65I                 1:33      2.994     
65I                 1:36      2.791     
65I                 1:39      2.598     
65I                 1:42      2.417     
65I                 1:45      2.246     
65I                 1:48      2.087     
65I                 1:51      1.939     
65I                 1:54      1.800     
65I                 1:57      1.672     
65I                 2:00      1.554     
65I                 2:03      1.444     
65I                 2:06      1.343     
65I                 2:09      1.250     
65I                 2:12      1.165     
65I                 2:15      1.086     
65I                 2:18      1.015     
65I                 2:21      0.949     
65I                 2:24      0.889     
65I                 2:27      0.835     
65I                 2:30      0.785     
65I                 2:33      0.740     
65I                 2:36      0.699     
65I                 2:39      0.662     
65I                 2:42      0.628     
65I                 2:45      0.598     
65I                 2:48      0.570     
65I                 2:51      0.545     
65I                 2:54      0.522     
65I                 2:57      0.502     
65I                 3:00      0.484     
66C                 0:00      0.975     
66C                 0:03      1.580     
66C                 0:06      3.074     
66C                 0:09      5.070     
66C                 0:12      7.285     
66C                 0:15      9.522     
66C                 0:18      11.644    
66C                 0:21      13.564    
66C                 0:24      15.229    
66C                 0:27      16.614    
66C                 0:30      17.712    
66C                 0:33      18.531    
66C                 0:36      19.086    
66C                 0:39      19.401    
66C                 0:42      19.500    
66C                 0:45      19.410    
66C                 0:48      19.158    
66C                 0:51      18.769    
66C                 0:54      18.268    
66C                 0:57      17.678    
66C                 1:00      17.019    
66C                 1:03      16.309    
66C                 1:06      15.564    
66C                 1:09      14.797    
66C                 1:12      14.022    
66C                 1:15      13.247    
66C                 1:18      12.482    
66C                 1:21      11.732    
66C                 1:24      11.003    
66C                 1:27      10.300    
66C                 1:30      9.626     
66C                 1:33      8.983     
66C                 1:36      8.372     
66C                 1:39      7.794     
66C                 1:42      7.250     
66C                 1:45      6.739     
66C                 1:48      6.262     
66C                 1:51      5.816     
66C                 1:54      5.401     
66C                 1:57      5.017     
66C                 2:00      4.661     
66C                 2:03      4.332     
66C                 2:06      4.029     
66C                 2:09      3.750     
66C                 2:12      3.494     
66C                 2:15      3.259     
66C                 2:18      3.044     
66C                 2:21      2.847     
66C                 2:24      2.668     
66C                 2:27      2.504     
66C                 2:30      2.355     
66C                 2:33      2.220     
66C                 2:36      2.097     
66C                 2:39      1.985     
66C                 2:42      1.884     
66C                 2:45      1.793     
66C                 2:48      1.710     
66C                 2:51      1.635     
66C                 2:54      1.567     
66C                 2:57      1.506     
66C                 3:00      1.451     
66I                 0:00      0.325     
66I                 0:03      0.527     
66I                 0:06      1.025     
66I                 0:09      1.690     
66I                 0:12      2.428     
66I                 0:15      3.174     
66I                 0:18      3.881     
66I                 0:21      4.521     
66I                 0:24      5.076     
66I                 0:27      5.538     
66I                 0:30      5.904     
66I                 0:33      6.177     
66I                 0:36      6.362     
66I                 0:39      6.467     
66I                 0:42      6.500     
66I                 0:45      6.470     
66I                 0:48      6.386     
66I                 0:51      6.256     
66I                 0:54      6.089     
66I                 0:57      5.893     
66I                 1:00      5.673     
66I                 1:03      5.436     
66I                 1:06      5.188     
66I                 1:09      4.932     
66I                 1:12      4.674     
66I                 1:15      4.416     
66I                 1:18      4.161     
66I                 1:21      3.911     
66I                 1:24      3.668     
66I                 1:27      3.433     
66I                 1:30      3.209     
66I                 1:33      2.994     
66I                 1:36      2.791     
66I                 1:39      2.598     
66I                 1:42      2.417     
66I                 1:45      2.246     
66I                 1:48      2.087     
66I                 1:51      1.939     
66I                 1:54      1.800     
66I                 1:57      1.672     
66I                 2:00      1.554     
66I                 2:03      1.444     
66I                 2:06      1.343     
66I                 2:09      1.250     
66I                 2:12      1.165     
66I                 2:15      1.086     
66I                 2:18      1.015     
66I                 2:21      0.949     
66I                 2:24      0.889     
66I                 2:27      0.835     
66I                 2:30      0.785     
66I                 2:33      0.740     
66I                 2:36      0.699     
66I                 2:39      0.662     
66I                 2:42      0.628     
66I                 2:45      0.598     
66I                 2:48      0.570     
66I                 2:51      0.545     
66I                 2:54      0.522     
66I                 2:57      0.502     
66I                 3:00      0.484     
67C                 0:00      1.300     
67C                 0:03      2.107     
67C                 0:06      4.099     
67C                 0:09      6.759     
67C                 0:12      9.714     
67C                 0:15      12.696    
67C                 0:18      15.526    
67C                 0:21      18.085    
67C                 0:24      20.305    
67C                 0:27      22.151    
67C                 0:30      23.616    
67C                 0:33      24.707    
67C                 0:36      25.448    
67C                 0:39      25.868    
67C                 0:42      26.000    
67C                 0:45      25.880    
67C                 0:48      25.544    
67C                 0:51      25.025    
67C                 0:54      24.358    
67C                 0:57      23.571    
67C                 1:00      22.692    
67C                 1:03      21.745    
67C                 1:06      20.751    
67C                 1:09      19.730    
67C                 1:12      18.696    
67C                 1:15      17.663    
67C                 1:18      16.642    
67C                 1:21      15.642    
67C                 1:24      14.671    
67C                 1:27      13.734    
67C                 1:30      12.835    
67C                 1:33      11.977    
67C                 1:36      11.162    
67C                 1:39      10.392    
67C                 1:42      9.667     
67C                 1:45      8.986     
67C                 1:48      8.349     
67C                 1:51      7.755     
67C                 1:54      7.202     
67C                 1:57      6.689     
67C                 2:00      6.214     
67C                 2:03      5.776     
67C                 2:06      5.372     
67C                 2:09      5.000     
67C                 2:12      4.658     
67C                 2:15      4.345     
67C                 2:18      4.058     
67C                 2:21      3.796     
67C                 2:24      3.557     
67C                 2:27      3.339     
67C                 2:30      3.140     
67C                 2:33      2.960     
67C                 2:36      2.796     
67C                 2:39      2.647     
67C                 2:42      2.512     
67C                 2:45      2.390     
67C                 2:48      2.280     
67C                 2:51      2.180     
67C                 2:54      2.090     
67C                 2:57      2.008     
67C                 3:00      1.935     
68C                 0:00      0.900     
68C                 0:03      1.459     
68C                 0:06      2.838     
68C                 0:09      4.680     
68C                 0:12      6.725     
68C                 0:15      8.790     
68C                 0:18      10.749    
68C                 0:21      12.521    
68C                 0:24      14.057    
68C                 0:27      15.336    
68C                 0:30      16.349    
68C                 0:33      17.105    
68C                 0:36      17.618    
68C                 0:39      17.909    
68C                 0:42      18.000    
68C                 0:45      17.917    
68C                 0:48      17.684    
68C                 0:51      17.325    
68C                 0:54      16.863    
68C                 0:57      16.318    
68C                 1:00      15.710    
68C                 1:03      15.054    
68C                 1:06      14.366    
68C                 1:09      13.659    
68C                 1:12      12.943    
68C                 1:15      12.228    
68C                 1:18      11.521    
68C                 1:21      10.829    
68C                 1:24      10.157    
68C                 1:27      9.508     
68C                 1:30      8.886     
68C                 1:33      8.292     
68C                 1:36      7.728     
68C                 1:39      7.195     
68C                 1:42      6.692     
68C                 1:45      6.221     
68C                 1:48      5.780     
68C                 1:51      5.369     
68C                 1:54      4.986     
68C                 1:57      4.631     
68C                 2:00      4.302     
68C                 2:03      3.999     
68C                 2:06      3.719     
68C                 2:09      3.461     
68C                 2:12      3.225     
68C                 2:15      3.008     
68C                 2:18      2.809     
68C                 2:21      2.628     
68C                 2:24      2.462     
68C                 2:27      2.311     
68C                 2:30      2.174     
68C                 2:33      2.049     
68C                 2:36      1.935     
68C                 2:39      1.833     
68C                 2:42      1.739     
68C                 2:45      1.655     
68C                 2:48      1.578     
68C                 2:51      1.509     
68C                 2:54      1.447     
68C                 2:57      1.390     
68C                 3:00      1.340     
69C                 0:00      0.800     
69C                 0:03      1.297     
69C                 0:06      2.522     
69C                 0:09      4.160     
69C                 0:12      5.978     
69C                 0:15      7.813     
69C                 0:18      9.554     
69C                 0:21      11.129    
69C                 0:24      12.496    
69C                 0:27      13.632    
69C                 0:30      14.533    
69C                 0:33      15.205    
69C                 0:36      15.661    
69C                 0:39      15.919    
69C                 0:42      16.000    
69C                 0:45      15.926    
69C                 0:48      15.719    
69C                 0:51      15.400    
69C                 0:54      14.989    
69C                 0:57      14.505    
69C                 1:00      13.964    
69C                 1:03      13.381    
69C                 1:06      12.770    
69C                 1:09      12.141    
69C                 1:12      11.505    
69C                 1:15      10.869    
69C                 1:18      10.241    
69C                 1:21      9.626     
69C                 1:24      9.028     
69C                 1:27      8.452     
69C                 1:30      7.898     
69C                 1:33      7.370     
69C                 1:36      6.869     
69C                 1:39      6.395     
69C                 1:42      5.949     
69C                 1:45      5.530     
69C                 1:48      5.138     
69C                 1:51      4.772     
69C                 1:54      4.432     
69C                 1:57      4.116     
69C                 2:00      3.824     
69C                 2:03      3.554     
69C                 2:06      3.306     
69C                 2:09      3.077     
69C                 2:12      2.866     
69C                 2:15      2.674     
69C                 2:18      2.497     
69C                 2:21      2.336     
69C                 2:24      2.189     
69C                 2:27      2.055     
69C                 2:30      1.932     
69C                 2:33      1.821     
69C                 2:36      1.720     
69C                 2:39      1.629     
69C                 2:42      1.546     
69C                 2:45      1.471     
69C                 2:48      1.403     
69C                 2:51      1.341     
69C                 2:54      1.286     
69C                 2:57      1.236     
69C                 3:00      1.191     
70C                 0:00      0.900     
70C                 0:03      1.459     
70C                 0:06      2.838     
70C                 0:09      4.680     
70C                 0:12      6.725     
70C                 0:15      8.790     
70C                 0:18      10.749    
70C                 0:21      12.521    
70C                 0:24      14.057    
70C                 0:27      15.336    
70C                 0:30      16.349    
70C                 0:33      17.105    
70C                 0:36      17.618    
70C                 0:39      17.909    
70C                 0:42      18.000    
70C                 0:45      17.917    
70C                 0:48      17.684    
70C                 0:51      17.325    
70C                 0:54      16.863    
70C                 0:57      16.318    
70C                 1:00      15.710    
70C                 1:03      15.054    
70C                 1:06      14.366    
70C                 1:09      13.659    
70C                 1:12      12.943    
70C                 1:15      12.228    
70C                 1:18      11.521    
70C                 1:21      10.829    
70C                 1:24      10.157    
70C                 1:27      9.508     
70C                 1:30      8.886     
70C                 1:33      8.292     
70C                 1:36      7.728     
70C                 1:39      7.195     
70C                 1:42      6.692     
70C                 1:45      6.221     
70C                 1:48      5.780     
70C                 1:51      5.369     
70C                 1:54      4.986     
70C                 1:57      4.631     
70C                 2:00      4.302     
70C                 2:03      3.999     
70C                 2:06      3.719     
70C                 2:09      3.461     
70C                 2:12      3.225     
70C                 2:15      3.008     
70C                 2:18      2.809     
70C                 2:21      2.628     
70C                 2:24      2.462     
70C                 2:27      2.311     
70C                 2:30      2.174     
70C                 2:33      2.049     
70C                 2:36      1.935     
70C                 2:39      1.833     
70C                 2:42      1.739     
70C                 2:45      1.655     
70C                 2:48      1.578     
70C                 2:51      1.509     
70C                 2:54      1.447     
70C                 2:57      1.390     
70C                 3:00      1.340     
71C                 0:00      1.275     
71C                 0:03      2.067     
71C                 0:06      4.020     
71C                 0:09      6.629     
71C                 0:12      9.527     
71C                 0:15      12.452    
71C                 0:18      15.227    
71C                 0:21      17.738    
71C                 0:24      19.915    
71C                 0:27      21.725    
71C                 0:30      23.161    
71C                 0:33      24.232    
71C                 0:36      24.959    
71C                 0:39      25.371    
71C                 0:42      25.500    
71C                 0:45      25.382    
71C                 0:48      25.052    
71C                 0:51      24.544    
71C                 0:54      23.889    
71C                 0:57      23.118    
71C                 1:00      22.255    
71C                 1:03      21.327    
71C                 1:06      20.352    
71C                 1:09      19.350    
71C                 1:12      18.336    
71C                 1:15      17.323    
71C                 1:18      16.322    
71C                 1:21      15.342    
71C                 1:24      14.389    
71C                 1:27      13.470    
71C                 1:30      12.588    
71C                 1:33      11.747    
71C                 1:36      10.948    
71C                 1:39      10.192    
71C                 1:42      9.481     
71C                 1:45      8.813     
71C                 1:48      8.188     
71C                 1:51      7.606     
71C                 1:54      7.063     
71C                 1:57      6.560     
71C                 2:00      6.095     
71C                 2:03      5.665     
71C                 2:06      5.268     
71C                 2:09      4.903     
71C                 2:12      4.568     
71C                 2:15      4.261     
71C                 2:18      3.980     
71C                 2:21      3.723     
71C                 2:24      3.488     
71C                 2:27      3.275     
71C                 2:30      3.080     
71C                 2:33      2.903     
71C                 2:36      2.742     
71C                 2:39      2.596     
71C                 2:42      2.464     
71C                 2:45      2.344     
71C                 2:48      2.236     
71C                 2:51      2.138     
71C                 2:54      2.049     
71C                 2:57      1.970     
71C                 3:00      1.898     
71I                 0:00      0.425     
71I                 0:03      0.689     
71I                 0:06      1.340     
71I                 0:09      2.210     
71I                 0:12      3.176     
71I                 0:15      4.151     
71I                 0:18      5.076     
71I                 0:21      5.913     
71I                 0:24      6.638     
71I                 0:27      7.242     
71I                 0:30      7.720     
71I                 0:33      8.077     
71I                 0:36      8.320     
71I                 0:39      8.457     
71I                 0:42      8.500     
71I                 0:45      8.461     
71I                 0:48      8.351     
71I                 0:51      8.181     
71I                 0:54      7.963     
71I                 0:57      7.706     
71I                 1:00      7.418     
71I                 1:03      7.109     
71I                 1:06      6.784     
71I                 1:09      6.450     
71I                 1:12      6.112     
71I                 1:15      5.774     
71I                 1:18      5.441     
71I                 1:21      5.114     
71I                 1:24      4.796     
71I                 1:27      4.490     
71I                 1:30      4.196     
71I                 1:33      3.916     
71I                 1:36      3.649     
71I                 1:39      3.397     
71I                 1:42      3.160     
71I                 1:45      2.938     
71I                 1:48      2.729     
71I                 1:51      2.535     
71I                 1:54      2.354     
71I                 1:57      2.187     
71I                 2:00      2.032     
71I                 2:03      1.888     
71I                 2:06      1.756     
71I                 2:09      1.634     
71I                 2:12      1.523     
71I                 2:15      1.420     
71I                 2:18      1.327     
71I                 2:21      1.241     
71I                 2:24      1.163     
71I                 2:27      1.092     
71I                 2:30      1.027     
71I                 2:33      0.968     
71I                 2:36      0.914     
71I                 2:39      0.865     
71I                 2:42      0.821     
71I                 2:45      0.781     
71I                 2:48      0.745     
71I                 2:51      0.713     
71I                 2:54      0.683     
71I                 2:57      0.657     
71I                 3:00      0.633     
72C                 0:00      0.975     
72C                 0:03      1.580     
72C                 0:06      3.074     
72C                 0:09      5.070     
72C                 0:12      7.285     
72C                 0:15      9.522     
72C                 0:18      11.644    
72C                 0:21      13.564    
72C                 0:24      15.229    
72C                 0:27      16.614    
72C                 0:30      17.712    
72C                 0:33      18.531    
72C                 0:36      19.086    
72C                 0:39      19.401    
72C                 0:42      19.500    
72C                 0:45      19.410    
72C                 0:48      19.158    
72C                 0:51      18.769    
72C                 0:54      18.268    
72C                 0:57      17.678    
72C                 1:00      17.019    
72C                 1:03      16.309    
72C                 1:06      15.564    
72C                 1:09      14.797    
72C                 1:12      14.022    
72C                 1:15      13.247    
72C                 1:18      12.482    
72C                 1:21      11.732    
72C                 1:24      11.003    
72C                 1:27      10.300    
72C                 1:30      9.626     
72C                 1:33      8.983     
72C                 1:36      8.372     
72C                 1:39      7.794     
72C                 1:42      7.250     
72C                 1:45      6.739     
72C                 1:48      6.262     
72C                 1:51      5.816     
72C                 1:54      5.401     
72C                 1:57      5.017     
72C                 2:00      4.661     
72C                 2:03      4.332     
72C                 2:06      4.029     
72C                 2:09      3.750     
72C                 2:12      3.494     
72C                 2:15      3.259     
72C                 2:18      3.044     
72C                 2:21      2.847     
72C                 2:24      2.668     
72C                 2:27      2.504     
72C                 2:30      2.355     
72C                 2:33      2.220     
72C                 2:36      2.097     
72C                 2:39      1.985     
72C                 2:42      1.884     
72C                 2:45      1.793     
72C                 2:48      1.710     
72C                 2:51      1.635     
72C                 2:54      1.567     
72C                 2:57      1.506     
72C                 3:00      1.451     
72I                 0:00      0.325     
72I                 0:03      0.527     
72I                 0:06      1.025     
72I                 0:09      1.690     
72I                 0:12      2.428     
72I                 0:15      3.174     
72I                 0:18      3.881     
72I                 0:21      4.521     
72I                 0:24      5.076     
72I                 0:27      5.538     
72I                 0:30      5.904     
72I                 0:33      6.177     
72I                 0:36      6.362     
72I                 0:39      6.467     
72I                 0:42      6.500     
72I                 0:45      6.470     
72I                 0:48      6.386     
72I                 0:51      6.256     
72I                 0:54      6.089     
72I                 0:57      5.893     
72I                 1:00      5.673     
72I                 1:03      5.436     
72I                 1:06      5.188     
72I                 1:09      4.932     
72I                 1:12      4.674     
72I                 1:15      4.416     
72I                 1:18      4.161     
72I                 1:21      3.911     
72I                 1:24      3.668     
72I                 1:27      3.433     
72I                 1:30      3.209     
72I                 1:33      2.994     
72I                 1:36      2.791     
72I                 1:39      2.598     
72I                 1:42      2.417     
72I                 1:45      2.246     
72I                 1:48      2.087     
72I                 1:51      1.939     
72I                 1:54      1.800     
72I                 1:57      1.672     
72I                 2:00      1.554     
72I                 2:03      1.444     
72I                 2:06      1.343     
72I                 2:09      1.250     
72I                 2:12      1.165     
72I                 2:15      1.086     
72I                 2:18      1.015     
72I                 2:21      0.949     
72I                 2:24      0.889     
72I                 2:27      0.835     
72I                 2:30      0.785     
72I                 2:33      0.740     
72I                 2:36      0.699     
72I                 2:39      0.662     
72I                 2:42      0.628     
72I                 2:45      0.598     
72I                 2:48      0.570     
72I                 2:51      0.545     
72I                 2:54      0.522     
72I                 2:57      0.502     
72I                 3:00      0.484     
73C                 0:00      1.350     
73C                 0:03      2.188     
73C                 0:06      4.257     
73C                 0:09      7.019     
73C                 0:12      10.087    
73C                 0:15      13.185    
73C                 0:18      16.123    
73C                 0:21      18.781    
73C                 0:24      21.086    
73C                 0:27      23.003    
73C                 0:30      24.524    
73C                 0:33      25.658    
73C                 0:36      26.427    
73C                 0:39      26.863    
73C                 0:42      27.000    
73C                 0:45      26.875    
73C                 0:48      26.526    
73C                 0:51      25.988    
73C                 0:54      25.295    
73C                 0:57      24.477    
73C                 1:00      23.565    
73C                 1:03      22.581    
73C                 1:06      21.549    
73C                 1:09      20.489    
73C                 1:12      19.415    
73C                 1:15      18.342    
73C                 1:18      17.282    
73C                 1:21      16.244    
73C                 1:24      15.235    
73C                 1:27      14.262    
73C                 1:30      13.328    
73C                 1:33      12.438    
73C                 1:36      11.592    
73C                 1:39      10.792    
73C                 1:42      10.039    
73C                 1:45      9.331     
73C                 1:48      8.670     
73C                 1:51      8.053     
73C                 1:54      7.479     
73C                 1:57      6.946     
73C                 2:00      6.453     
73C                 2:03      5.998     
73C                 2:06      5.578     
73C                 2:09      5.192     
73C                 2:12      4.837     
73C                 2:15      4.512     
73C                 2:18      4.214     
73C                 2:21      3.942     
73C                 2:24      3.694     
73C                 2:27      3.467     
73C                 2:30      3.261     
73C                 2:33      3.074     
73C                 2:36      2.903     
73C                 2:39      2.749     
73C                 2:42      2.609     
73C                 2:45      2.482     
73C                 2:48      2.367     
73C                 2:51      2.264     
73C                 2:54      2.170     
73C                 2:57      2.086     
73C                 3:00      2.009     
73I                 0:00      0.450     
73I                 0:03      0.729     
73I                 0:06      1.419     
73I                 0:09      2.340     
73I                 0:12      3.362     
73I                 0:15      4.395     
73I                 0:18      5.374     
73I                 0:21      6.260     
73I                 0:24      7.029     
73I                 0:27      7.668     
73I                 0:30      8.175     
73I                 0:33      8.553     
73I                 0:36      8.809     
73I                 0:39      8.954     
73I                 0:42      9.000     
73I                 0:45      8.958     
73I                 0:48      8.842     
73I                 0:51      8.663     
73I                 0:54      8.432     
73I                 0:57      8.159     
73I                 1:00      7.855     
73I                 1:03      7.527     
73I                 1:06      7.183     
73I                 1:09      6.830     
73I                 1:12      6.472     
73I                 1:15      6.114     
73I                 1:18      5.761     
73I                 1:21      5.415     
73I                 1:24      5.078     
73I                 1:27      4.754     
73I                 1:30      4.443     
73I                 1:33      4.146     
73I                 1:36      3.864     
73I                 1:39      3.597     
73I                 1:42      3.346     
73I                 1:45      3.110     
73I                 1:48      2.890     
73I                 1:51      2.684     
73I                 1:54      2.493     
73I                 1:57      2.315     
73I                 2:00      2.151     
73I                 2:03      1.999     
73I                 2:06      1.859     
73I                 2:09      1.731     
73I                 2:12      1.612     
73I                 2:15      1.504     
73I                 2:18      1.405     
73I                 2:21      1.314     
73I                 2:24      1.231     
73I                 2:27      1.156     
73I                 2:30      1.087     
73I                 2:33      1.025     
73I                 2:36      0.968     
73I                 2:39      0.916     
73I                 2:42      0.870     
73I                 2:45      0.827     
73I                 2:48      0.789     
73I                 2:51      0.755     
73I                 2:54      0.723     
73I                 2:57      0.695     
73I                 3:00      0.670     
74C                 0:00      0.900     
74C                 0:03      1.459     
74C                 0:06      2.838     
74C                 0:09      4.680     
74C                 0:12      6.725     
74C                 0:15      8.790     
74C                 0:18      10.749    
74C                 0:21      12.521    
74C                 0:24      14.057    
74C                 0:27      15.336    
74C                 0:30      16.349    
74C                 0:33      17.105    
74C                 0:36      17.618    
74C                 0:39      17.909    
74C                 0:42      18.000    
74C                 0:45      17.917    
74C                 0:48      17.684    
74C                 0:51      17.325    
74C                 0:54      16.863    
74C                 0:57      16.318    
74C                 1:00      15.710    
74C                 1:03      15.054    
74C                 1:06      14.366    
74C                 1:09      13.659    
74C                 1:12      12.943    
74C                 1:15      12.228    
74C                 1:18      11.521    
74C                 1:21      10.829    
74C                 1:24      10.157    
74C                 1:27      9.508     
74C                 1:30      8.886     
74C                 1:33      8.292     
74C                 1:36      7.728     
74C                 1:39      7.195     
74C                 1:42      6.692     
74C                 1:45      6.221     
74C                 1:48      5.780     
74C                 1:51      5.369     
74C                 1:54      4.986     
74C                 1:57      4.631     
74C                 2:00      4.302     
74C                 2:03      3.999     
74C                 2:06      3.719     
74C                 2:09      3.461     
74C                 2:12      3.225     
74C                 2:15      3.008     
74C                 2:18      2.809     
74C                 2:21      2.628     
74C                 2:24      2.462     
74C                 2:27      2.311     
74C                 2:30      2.174     
74C                 2:33      2.049     
74C                 2:36      1.935     
74C                 2:39      1.833     
74C                 2:42      1.739     
74C                 2:45      1.655     
74C                 2:48      1.578     
74C                 2:51      1.509     
74C                 2:54      1.447     
74C                 2:57      1.390     
74C                 3:00      1.340     
75C                 0:00      1.200     
75C                 0:03      1.945     
75C                 0:06      3.784     
75C                 0:09      6.239     
75C                 0:12      8.966     
75C                 0:15      11.720    
75C                 0:18      14.332    
75C                 0:21      16.694    
75C                 0:24      18.743    
75C                 0:27      20.447    
75C                 0:30      21.799    
75C                 0:33      22.807    
75C                 0:36      23.491    
75C                 0:39      23.878    
75C                 0:42      24.000    
75C                 0:45      23.889    
75C                 0:48      23.579    
75C                 0:51      23.100    
75C                 0:54      22.484    
75C                 0:57      21.758    
75C                 1:00      20.946    
75C                 1:03      20.072    
75C                 1:06      19.155    
75C                 1:09      18.212    
75C                 1:12      17.258    
75C                 1:15      16.304    
75C                 1:18      15.362    
75C                 1:21      14.439    
75C                 1:24      13.543    
75C                 1:27      12.677    
75C                 1:30      11.848    
75C                 1:33      11.056    
75C                 1:36      10.304    
75C                 1:39      9.593     
75C                 1:42      8.923     
75C                 1:45      8.295     
75C                 1:48      7.707     
75C                 1:51      7.158     
75C                 1:54      6.648     
75C                 1:57      6.175     
75C                 2:00      5.736     
75C                 2:03      5.332     
75C                 2:06      4.958     
75C                 2:09      4.615     
75C                 2:12      4.300     
75C                 2:15      4.011     
75C                 2:18      3.746     
75C                 2:21      3.504     
75C                 2:24      3.283     
75C                 2:27      3.082     
75C                 2:30      2.899     
75C                 2:33      2.732     
75C                 2:36      2.581     
75C                 2:39      2.443     
75C                 2:42      2.319     
75C                 2:45      2.206     
75C                 2:48      2.104     
75C                 2:51      2.012     
75C                 2:54      1.929     
75C                 2:57      1.854     
75C                 3:00      1.786     
75I                 0:00      0.400     
75I                 0:03      0.648     
75I                 0:06      1.261     
75I                 0:09      2.080     
75I                 0:12      2.989     
75I                 0:15      3.907     
75I                 0:18      4.777     
75I                 0:21      5.565     
75I                 0:24      6.248     
75I                 0:27      6.816     
75I                 0:30      7.266     
75I                 0:33      7.602     
75I                 0:36      7.830     
75I                 0:39      7.959     
75I                 0:42      8.000     
75I                 0:45      7.963     
75I                 0:48      7.860     
75I                 0:51      7.700     
75I                 0:54      7.495     
75I                 0:57      7.253     
75I                 1:00      6.982     
75I                 1:03      6.691     
75I                 1:06      6.385     
75I                 1:09      6.071     
75I                 1:12      5.753     
75I                 1:15      5.435     
75I                 1:18      5.121     
75I                 1:21      4.813     
75I                 1:24      4.514     
75I                 1:27      4.226     
75I                 1:30      3.949     
75I                 1:33      3.685     
75I                 1:36      3.435     
75I                 1:39      3.198     
75I                 1:42      2.974     
75I                 1:45      2.765     
75I                 1:48      2.569     
75I                 1:51      2.386     
75I                 1:54      2.216     
75I                 1:57      2.058     
75I                 2:00      1.912     
75I                 2:03      1.777     
75I                 2:06      1.653     
75I                 2:09      1.538     
75I                 2:12      1.433     
75I                 2:15      1.337     
75I                 2:18      1.249     
75I                 2:21      1.168     
75I                 2:24      1.094     
75I                 2:27      1.027     
75I                 2:30      0.966     
75I                 2:33      0.911     
75I                 2:36      0.860     
75I                 2:39      0.814     
75I                 2:42      0.773     
75I                 2:45      0.735     
75I                 2:48      0.701     
75I                 2:51      0.671     
75I                 2:54      0.643     
75I                 2:57      0.618     
75I                 3:00      0.595     
76C                 0:00      1.275     
76C                 0:03      2.067     
76C                 0:06      4.020     
76C                 0:09      6.629     
76C                 0:12      9.527     
76C                 0:15      12.452    
76C                 0:18      15.227    
76C                 0:21      17.738    
76C                 0:24      19.915    
76C                 0:27      21.725    
76C                 0:30      23.161    
76C                 0:33      24.232    
76C                 0:36      24.959    
76C                 0:39      25.371    
76C                 0:42      25.500    
76C                 0:45      25.382    
76C                 0:48      25.052    
76C                 0:51      24.544    
76C                 0:54      23.889    
76C                 0:57      23.118    
76C                 1:00      22.255    
76C                 1:03      21.327    
76C                 1:06      20.352    
76C                 1:09      19.350    
76C                 1:12      18.336    
76C                 1:15      17.323    
76C                 1:18      16.322    
76C                 1:21      15.342    
76C                 1:24      14.389    
76C                 1:27      13.470    
76C                 1:30      12.588    
76C                 1:33      11.747    
76C                 1:36      10.948    
76C                 1:39      10.192    
76C                 1:42      9.481     
76C                 1:45      8.813     
76C                 1:48      8.188     
76C                 1:51      7.606     
76C                 1:54      7.063     
76C                 1:57      6.560     
76C                 2:00      6.095     
76C                 2:03      5.665     
76C                 2:06      5.268     
76C                 2:09      4.903     
76C                 2:12      4.568     
76C                 2:15      4.261     
76C                 2:18      3.980     
76C                 2:21      3.723     
76C                 2:24      3.488     
76C                 2:27      3.275     
76C                 2:30      3.080     
76C                 2:33      2.903     
76C                 2:36      2.742     
76C                 2:39      2.596     
76C                 2:42      2.464     
76C                 2:45      2.344     
76C                 2:48      2.236     
76C                 2:51      2.138     
76C                 2:54      2.049     
76C                 2:57      1.970     
76C                 3:00      1.898     
76I                 0:00      0.425     
76I                 0:03      0.689     
76I                 0:06      1.340     
76I                 0:09      2.210     
76I                 0:12      3.176     
76I                 0:15      4.151     
76I                 0:18      5.076     
76I                 0:21      5.913     
76I                 0:24      6.638     
76I                 0:27      7.242     
76I                 0:30      7.720     
76I                 0:33      8.077     
76I                 0:36      8.320     
76I                 0:39      8.457     
76I                 0:42      8.500     
76I                 0:45      8.461     
76I                 0:48      8.351     
76I                 0:51      8.181     
76I                 0:54      7.963     
76I                 0:57      7.706     
76I                 1:00      7.418     
76I                 1:03      7.109     
76I                 1:06      6.784     
76I                 1:09      6.450     
76I                 1:12      6.112     
76I                 1:15      5.774     
76I                 1:18      5.441     
76I                 1:21      5.114     
76I                 1:24      4.796     
76I                 1:27      4.490     
76I                 1:30      4.196     
76I                 1:33      3.916     
76I                 1:36      3.649     
76I                 1:39      3.397     
76I                 1:42      3.160     
76I                 1:45      2.938     
76I                 1:48      2.729     
76I                 1:51      2.535     
76I                 1:54      2.354     
76I                 1:57      2.187     
76I                 2:00      2.032     
76I                 2:03      1.888     
76I                 2:06      1.756     
76I                 2:09      1.634     
76I                 2:12      1.523     
76I                 2:15      1.420     
76I                 2:18      1.327     
76I                 2:21      1.241     
76I                 2:24      1.163     
76I                 2:27      1.092     
76I                 2:30      1.027     
76I                 2:33      0.968     
76I                 2:36      0.914     
76I                 2:39      0.865     
76I                 2:42      0.821     
76I                 2:45      0.781     
76I                 2:48      0.745     
76I                 2:51      0.713     
76I                 2:54      0.683     
76I                 2:57      0.657     
76I                 3:00      0.633     
77C                 0:00      1.275     
77C                 0:03      2.067     
77C                 0:06      4.020     
77C                 0:09      6.629     
77C                 0:12      9.527     
77C                 0:15      12.452    
77C                 0:18      15.227    
77C                 0:21      17.738    
77C                 0:24      19.915    
77C                 0:27      21.725    
77C                 0:30      23.161    
77C                 0:33      24.232    
77C                 0:36      24.959    
77C                 0:39      25.371    
77C                 0:42      25.500    
77C                 0:45      25.382    
77C                 0:48      25.052    
77C                 0:51      24.544    
77C                 0:54      23.889    
77C                 0:57      23.118    
77C                 1:00      22.255    
77C                 1:03      21.327    
77C                 1:06      20.352    
77C                 1:09      19.350    
77C                 1:12      18.336    
77C                 1:15      17.323    
77C                 1:18      16.322    
77C                 1:21      15.342    
77C                 1:24      14.389    
77C                 1:27      13.470    
77C                 1:30      12.588    
77C                 1:33      11.747    
77C                 1:36      10.948    
77C                 1:39      10.192    
77C                 1:42      9.481     
77C                 1:45      8.813     
77C                 1:48      8.188     
77C                 1:51      7.606     
77C                 1:54      7.063     
77C                 1:57      6.560     
77C                 2:00      6.095     
77C                 2:03      5.665     
77C                 2:06      5.268     
77C                 2:09      4.903     
77C                 2:12      4.568     
77C                 2:15      4.261     
77C                 2:18      3.980     
77C                 2:21      3.723     
77C                 2:24      3.488     
77C                 2:27      3.275     
77C                 2:30      3.080     
77C                 2:33      2.903     
77C                 2:36      2.742     
77C                 2:39      2.596     
77C                 2:42      2.464     
77C                 2:45      2.344     
77C                 2:48      2.236     
77C                 2:51      2.138     
77C                 2:54      2.049     
77C                 2:57      1.970     
77C                 3:00      1.898     
77I                 0:00      0.425     
77I                 0:03      0.689     
77I                 0:06      1.340     
77I                 0:09      2.210     
77I                 0:12      3.176     
77I                 0:15      4.151     
77I                 0:18      5.076     
77I                 0:21      5.913     
77I                 0:24      6.638     
77I                 0:27      7.242     
77I                 0:30      7.720     
77I                 0:33      8.077     
77I                 0:36      8.320     
77I                 0:39      8.457     
77I                 0:42      8.500     
77I                 0:45      8.461     
77I                 0:48      8.351     
77I                 0:51      8.181     
77I                 0:54      7.963     
77I                 0:57      7.706     
77I                 1:00      7.418     
77I                 1:03      7.109     
77I                 1:06      6.784     
77I                 1:09      6.450     
77I                 1:12      6.112     
77I                 1:15      5.774     
77I                 1:18      5.441     
77I                 1:21      5.114     
77I                 1:24      4.796     
77I                 1:27      4.490     
77I                 1:30      4.196     
77I                 1:33      3.916     
77I                 1:36      3.649     
77I                 1:39      3.397     
77I                 1:42      3.160     
77I                 1:45      2.938     
77I                 1:48      2.729     
77I                 1:51      2.535     
77I                 1:54      2.354     
77I                 1:57      2.187     
77I                 2:00      2.032     
77I                 2:03      1.888     
77I                 2:06      1.756     
77I                 2:09      1.634     
77I                 2:12      1.523     
77I                 2:15      1.420     
77I                 2:18      1.327     
77I                 2:21      1.241     
77I                 2:24      1.163     
77I                 2:27      1.092     
77I                 2:30      1.027     
77I                 2:33      0.968     
77I                 2:36      0.914     
77I                 2:39      0.865     
77I                 2:42      0.821     
77I                 2:45      0.781     
77I                 2:48      0.745     
77I                 2:51      0.713     
77I                 2:54      0.683     
77I                 2:57      0.657     
77I                 3:00      0.633     
78C                 0:00      0.800     
78C                 0:03      1.297     
78C                 0:06      2.522     
78C                 0:09      4.160     
78C                 0:12      5.978     
78C                 0:15      7.813     
78C                 0:18      9.554     
78C                 0:21      11.129    
78C                 0:24      12.496    
78C                 0:27      13.632    
78C                 0:30      14.533    
78C                 0:33      15.205    
78C                 0:36      15.661    
78C                 0:39      15.919    
78C                 0:42      16.000    
78C                 0:45      15.926    
78C                 0:48      15.719    
78C                 0:51      15.400    
78C                 0:54      14.989    
78C                 0:57      14.505    
78C                 1:00      13.964    
78C                 1:03      13.381    
78C                 1:06      12.770    
78C                 1:09      12.141    
78C                 1:12      11.505    
78C                 1:15      10.869    
78C                 1:18      10.241    
78C                 1:21      9.626     
78C                 1:24      9.028     
78C                 1:27      8.452     
78C                 1:30      7.898     
78C                 1:33      7.370     
78C                 1:36      6.869     
78C                 1:39      6.395     
78C                 1:42      5.949     
78C                 1:45      5.530     
78C                 1:48      5.138     
78C                 1:51      4.772     
78C                 1:54      4.432     
78C                 1:57      4.116     
78C                 2:00      3.824     
78C                 2:03      3.554     
78C                 2:06      3.306     
78C                 2:09      3.077     
78C                 2:12      2.866     
78C                 2:15      2.674     
78C                 2:18      2.497     
78C                 2:21      2.336     
78C                 2:24      2.189     
78C                 2:27      2.055     
78C                 2:30      1.932     
78C                 2:33      1.821     
78C                 2:36      1.720     
78C                 2:39      1.629     
78C                 2:42      1.546     
78C                 2:45      1.471     
78C                 2:48      1.403     
78C                 2:51      1.341     
78C                 2:54      1.286     
78C                 2:57      1.236     
78C                 3:00      1.191     
79C                 0:00      1.300     
79C                 0:03      2.107     
79C                 0:06      4.099     
79C                 0:09      6.759     
79C                 0:12      9.714     
79C                 0:15      12.696    
79C                 0:18      15.526    
79C                 0:21      18.085    
79C                 0:24      20.305    
79C                 0:27      22.151    
79C                 0:30      23.616    
79C                 0:33      24.707    
79C                 0:36      25.448    
79C                 0:39      25.868    
79C                 0:42      26.000    
79C                 0:45      25.880    
79C                 0:48      25.544    
79C                 0:51      25.025    
79C                 0:54      24.358    
79C                 0:57      23.571    
79C                 1:00      22.692    
79C                 1:03      21.745    
79C                 1:06      20.751    
79C                 1:09      19.730    
79C                 1:12      18.696    
79C                 1:15      17.663    
79C                 1:18      16.642    
79C                 1:21      15.642    
79C                 1:24      14.671    
79C                 1:27      13.734    
79C                 1:30      12.835    
79C                 1:33      11.977    
79C                 1:36      11.162    
79C                 1:39      10.392    
79C                 1:42      9.667     
79C                 1:45      8.986     
79C                 1:48      8.349     
79C                 1:51      7.755     
79C                 1:54      7.202     
79C                 1:57      6.689     
79C                 2:00      6.214     
79C                 2:03      5.776     
79C                 2:06      5.372     
79C                 2:09      5.000     
79C                 2:12      4.658     
79C                 2:15      4.345     
79C                 2:18      4.058     
79C                 2:21      3.796     
79C                 2:24      3.557     
79C                 2:27      3.339     
79C                 2:30      3.140     
79C                 2:33      2.960     
79C                 2:36      2.796     
79C                 2:39      2.647     
79C                 2:42      2.512     
79C                 2:45      2.390     
79C                 2:48      2.280     
79C                 2:51      2.180     
79C                 2:54      2.090     
79C                 2:57      2.008     
79C                 3:00      1.935     
80C                 0:00      0.900     
80C                 0:03      1.459     
80C                 0:06      2.838     
80C                 0:09      4.680     
80C                 0:12      6.725     
80C                 0:15      8.790     
80C                 0:18      10.749    
80C                 0:21      12.521    
80C                 0:24      14.057    
80C                 0:27      15.336    
80C                 0:30      16.349    
80C                 0:33      17.105    
80C                 0:36      17.618    
80C                 0:39      17.909    
80C                 0:42      18.000    
80C                 0:45      17.917    
80C                 0:48      17.684    
80C                 0:51      17.325    
80C                 0:54      16.863    
80C                 0:57      16.318    
80C                 1:00      15.710    
80C                 1:03      15.054    
80C                 1:06      14.366    
80C                 1:09      13.659    
80C                 1:12      12.943    
80C                 1:15      12.228    
80C                 1:18      11.521    
80C                 1:21      10.829    
80C                 1:24      10.157    
80C                 1:27      9.508     
80C                 1:30      8.886     
80C                 1:33      8.292     
80C                 1:36      7.728     
80C                 1:39      7.195     
80C                 1:42      6.692     
80C                 1:45      6.221     
80C                 1:48      5.780     
80C                 1:51      5.369     
80C                 1:54      4.986     
80C                 1:57      4.631     
80C                 2:00      4.302     
80C                 2:03      3.999     
80C                 2:06      3.719     
80C                 2:09      3.461     
80C                 2:12      3.225     
80C                 2:15      3.008     
80C                 2:18      2.809     
80C                 2:21      2.628     
80C                 2:24      2.462     
80C                 2:27      2.311     
80C                 2:30      2.174     
80C                 2:33      2.049     
80C                 2:36      1.935     
80C                 2:39      1.833     
80C                 2:42      1.739     
80C                 2:45      1.655     
80C                 2:48      1.578     
80C                 2:51      1.509     
80C                 2:54      1.447     
80C                 2:57      1.390     
80C                 3:00      1.340     
81C                 0:00      0.000     
81C                 0:03      0.000     
81C                 0:06      0.000     
81C                 0:09      0.000     
81C                 0:12      0.000     
81C                 0:15      0.000     
81C                 0:18      0.000     
81C                 0:21      0.000     
81C                 0:24      0.000     
81C                 0:27      0.000     
81C                 0:30      0.000     
81C                 0:33      0.000     
81C                 0:36      0.000     
81C                 0:39      0.000     
81C                 0:42      0.000     
81C                 0:45      0.000     
81C                 0:48      0.000     
81C                 0:51      0.000     
81C                 0:54      0.000     
81C                 0:57      0.000     
81C                 1:00      0.000     
81C                 1:03      0.000     
81C                 1:06      0.000     
81C                 1:09      0.000     
81C                 1:12      0.000     
81C                 1:15      0.000     
81C                 1:18      0.000     
81C                 1:21      0.000     
81C                 1:24      0.000     
81C                 1:27      0.000     
81C                 1:30      0.000     
81C                 1:33      0.000     
81C                 1:36      0.000     
81C                 1:39      0.000     
81C                 1:42      0.000     
81C                 1:45      0.000     
81C                 1:48      0.000     
81C                 1:51      0.000     
81C                 1:54      0.000     
81C                 1:57      0.000     
81C                 2:00      0.000     
81C                 2:03      0.000     
81C                 2:06      0.000     
81C                 2:09      0.000     
81C                 2:12      0.000     
81C                 2:15      0.000     
81C                 2:18      0.000     
81C                 2:21      0.000     
81C                 2:24      0.000     
81C                 2:27      0.000     
81C                 2:30      0.000     
81C                 2:33      0.000     
81C                 2:36      0.000     
81C                 2:39      0.000     
81C                 2:42      0.000     
81C                 2:45      0.000     
81C                 2:48      0.000     
81C                 2:51      0.000     
81C                 2:54      0.000     
81C                 2:57      0.000     
81C                 3:00      0.000     
81I                 0:00      0.425     
81I                 0:03      0.689     
81I                 0:06      1.340     
81I                 0:09      2.210     
81I                 0:12      3.176     
81I                 0:15      4.151     
81I                 0:18      5.076     
81I                 0:21      5.913     
81I                 0:24      6.638     
81I                 0:27      7.242     
81I                 0:30      7.720     
81I                 0:33      8.077     
81I                 0:36      8.320     
81I                 0:39      8.457     
81I                 0:42      8.500     
81I                 0:45      8.461     
81I                 0:48      8.351     
81I                 0:51      8.181     
81I                 0:54      7.963     
81I                 0:57      7.706     
81I                 1:00      7.418     
81I                 1:03      7.109     
81I                 1:06      6.784     
81I                 1:09      6.450     
81I                 1:12      6.112     
81I                 1:15      5.774     
81I                 1:18      5.441     
81I                 1:21      5.114     
81I                 1:24      4.796     
81I                 1:27      4.490     
81I                 1:30      4.196     
81I                 1:33      3.916     
81I                 1:36      3.649     
81I                 1:39      3.397     
81I                 1:42      3.160     
81I                 1:45      2.938     
81I                 1:48      2.729     
81I                 1:51      2.535     
81I                 1:54      2.354     
81I                 1:57      2.187     
81I                 2:00      2.032     
81I                 2:03      1.888     
81I                 2:06      1.756     
81I                 2:09      1.634     
81I                 2:12      1.523     
81I                 2:15      1.420     
81I                 2:18      1.327     
81I                 2:21      1.241     
81I                 2:24      1.163     
81I                 2:27      1.092     
81I                 2:30      1.027     
81I                 2:33      0.968     
81I                 2:36      0.914     
81I                 2:39      0.865     
81I                 2:42      0.821     
81I                 2:45      0.781     
81I                 2:48      0.745     
81I                 2:51      0.713     
81I                 2:54      0.683     
81I                 2:57      0.657     
81I                 3:00      0.633     
81Ib                0:00      1.275     
81Ib                0:03      2.067     
81Ib                0:06      4.020     
81Ib                0:09      6.629     
81Ib                0:12      9.527     
81Ib                0:15      12.452    
81Ib                0:18      15.227    
81Ib                0:21      17.738    
81Ib                0:24      19.915    
81Ib                0:27      21.725    
81Ib                0:30      23.161    
81Ib                0:33      24.232    
81Ib                0:36      24.959    
81Ib                0:39      25.371    
81Ib                0:42      25.500    
81Ib                0:45      25.382    
81Ib                0:48      25.052    
81Ib                0:51      24.544    
81Ib                0:54      23.889    
81Ib                0:57      23.118    
81Ib                1:00      22.255    
81Ib                1:03      21.327    
81Ib                1:06      20.352    
81Ib                1:09      19.350    
81Ib                1:12      18.336    
81Ib                1:15      17.323    
81Ib                1:18      16.322    
81Ib                1:21      15.342    
81Ib                1:24      14.389    
81Ib                1:27      13.470    
81Ib                1:30      12.588    
81Ib                1:33      11.747    
81Ib                1:36      10.948    
81Ib                1:39      10.192    
81Ib                1:42      9.481     
81Ib                1:45      8.813     
81Ib                1:48      8.188     
81Ib                1:51      7.606     
81Ib                1:54      7.063     
81Ib                1:57      6.560     
81Ib                2:00      6.095     
81Ib                2:03      5.665     
81Ib                2:06      5.268     
81Ib                2:09      4.903     
81Ib                2:12      4.568     
81Ib                2:15      4.261     
81Ib                2:18      3.980     
81Ib                2:21      3.723     
81Ib                2:24      3.488     
81Ib                2:27      3.275     
81Ib                2:30      3.080     
81Ib                2:33      2.903     
81Ib                2:36      2.742     
81Ib                2:39      2.596     
81Ib                2:42      2.464     
81Ib                2:45      2.344     
81Ib                2:48      2.236     
81Ib                2:51      2.138     
81Ib                2:54      2.049     
81Ib                2:57      1.970     
81Ib                3:00      1.898     
82C                 0:00      0.800     
82C                 0:03      1.297     
82C                 0:06      2.522     
82C                 0:09      4.160     
82C                 0:12      5.978     
82C                 0:15      7.813     
82C                 0:18      9.554     
82C                 0:21      11.129    
82C                 0:24      12.496    
82C                 0:27      13.632    
82C                 0:30      14.533    
82C                 0:33      15.205    
82C                 0:36      15.661    
82C                 0:39      15.919    
82C                 0:42      16.000    
82C                 0:45      15.926    
82C                 0:48      15.719    
82C                 0:51      15.400    
82C                 0:54      14.989    
82C                 0:57      14.505    
82C                 1:00      13.964    
82C                 1:03      13.381    
82C                 1:06      12.770    
82C                 1:09      12.141    
82C                 1:12      11.505    
82C                 1:15      10.869    
82C                 1:18      10.241    
82C                 1:21      9.626     
82C                 1:24      9.028     
82C                 1:27      8.452     
82C                 1:30      7.898     
82C                 1:33      7.370     
82C                 1:36      6.869     
82C                 1:39      6.395     
82C                 1:42      5.949     
82C                 1:45      5.530     
82C                 1:48      5.138     
82C                 1:51      4.772     
82C                 1:54      4.432     
82C                 1:57      4.116     
82C                 2:00      3.824     
82C                 2:03      3.554     
82C                 2:06      3.306     
82C                 2:09      3.077     
82C                 2:12      2.866     
82C                 2:15      2.674     
82C                 2:18      2.497     
82C                 2:21      2.336     
82C                 2:24      2.189     
82C                 2:27      2.055     
82C                 2:30      1.932     
82C                 2:33      1.821     
82C                 2:36      1.720     
82C                 2:39      1.629     
82C                 2:42      1.546     
82C                 2:45      1.471     
82C                 2:48      1.403     
82C                 2:51      1.341     
82C                 2:54      1.286     
82C                 2:57      1.236     
82C                 3:00      1.191     
82I                 0:00      0.400     
82I                 0:03      0.648     
82I                 0:06      1.261     
82I                 0:09      2.080     
82I                 0:12      2.989     
82I                 0:15      3.907     
82I                 0:18      4.777     
82I                 0:21      5.565     
82I                 0:24      6.248     
82I                 0:27      6.816     
82I                 0:30      7.266     
82I                 0:33      7.602     
82I                 0:36      7.830     
82I                 0:39      7.959     
82I                 0:42      8.000     
82I                 0:45      7.963     
82I                 0:48      7.860     
82I                 0:51      7.700     
82I                 0:54      7.495     
82I                 0:57      7.253     
82I                 1:00      6.982     
82I                 1:03      6.691     
82I                 1:06      6.385     
82I                 1:09      6.071     
82I                 1:12      5.753     
82I                 1:15      5.435     
82I                 1:18      5.121     
82I                 1:21      4.813     
82I                 1:24      4.514     
82I                 1:27      4.226     
82I                 1:30      3.949     
82I                 1:33      3.685     
82I                 1:36      3.435     
82I                 1:39      3.198     
82I                 1:42      2.974     
82I                 1:45      2.765     
82I                 1:48      2.569     
82I                 1:51      2.386     
82I                 1:54      2.216     
82I                 1:57      2.058     
82I                 2:00      1.912     
82I                 2:03      1.777     
82I                 2:06      1.653     
82I                 2:09      1.538     
82I                 2:12      1.433     
82I                 2:15      1.337     
82I                 2:18      1.249     
82I                 2:21      1.168     
82I                 2:24      1.094     
82I                 2:27      1.027     
82I                 2:30      0.966     
82I                 2:33      0.911     
82I                 2:36      0.860     
82I                 2:39      0.814     
82I                 2:42      0.773     
82I                 2:45      0.735     
82I                 2:48      0.701     
82I                 2:51      0.671     
82I                 2:54      0.643     
82I                 2:57      0.618     
82I                 3:00      0.595     
82Ib                0:00      0.400     
82Ib                0:03      0.648     
82Ib                0:06      1.261     
82Ib                0:09      2.080     
82Ib                0:12      2.989     
82Ib                0:15      3.907     
82Ib                0:18      4.777     
82Ib                0:21      5.565     
82Ib                0:24      6.248     
82Ib                0:27      6.816     
82Ib                0:30      7.266     
82Ib                0:33      7.602     
82Ib                0:36      7.830     
82Ib                0:39      7.959     
82Ib                0:42      8.000     
82Ib                0:45      7.963     
82Ib                0:48      7.860     
82Ib                0:51      7.700     
82Ib                0:54      7.495     
82Ib                0:57      7.253     
82Ib                1:00      6.982     
82Ib                1:03      6.691     
82Ib                1:06      6.385     
82Ib                1:09      6.071     
82Ib                1:12      5.753     
82Ib                1:15      5.435     
82Ib                1:18      5.121     
82Ib                1:21      4.813     
82Ib                1:24      4.514     
82Ib                1:27      4.226     
82Ib                1:30      3.949     
82Ib                1:33      3.685     
82Ib                1:36      3.435     
82Ib                1:39      3.198     
82Ib                1:42      2.974     
82Ib                1:45      2.765     
82Ib                1:48      2.569     
82Ib                1:51      2.386     
82Ib                1:54      2.216     
82Ib                1:57      2.058     
82Ib                2:00      1.912     
82Ib                2:03      1.777     
82Ib                2:06      1.653     
82Ib                2:09      1.538     
82Ib                2:12      1.433     
82Ib                2:15      1.337     
82Ib                2:18      1.249     
82Ib                2:21      1.168     
82Ib                2:24      1.094     
82Ib                2:27      1.027     
82Ib                2:30      0.966     
82Ib                2:33      0.911     
82Ib                2:36      0.860     
82Ib                2:39      0.814     
82Ib                2:42      0.773     
82Ib                2:45      0.735     
82Ib                2:48      0.701     
82Ib                2:51      0.671     
82Ib                2:54      0.643     
82Ib                2:57      0.618     
82Ib                3:00      0.595     
83C                 0:00      1.500     
83C                 0:03      2.431     
83C                 0:06      4.730     
83C                 0:09      7.799     
83C                 0:12      11.208    
83C                 0:15      14.649    
83C                 0:18      17.915    
83C                 0:21      20.868    
83C                 0:24      23.429    
83C                 0:27      25.559    
83C                 0:30      27.249    
83C                 0:33      28.508    
83C                 0:36      29.363    
83C                 0:39      29.848    
83C                 0:42      30.000    
83C                 0:45      29.862    
83C                 0:48      29.473    
83C                 0:51      28.875    
83C                 0:54      28.105    
83C                 0:57      27.197    
83C                 1:00      26.183    
83C                 1:03      25.090    
83C                 1:06      23.944    
83C                 1:09      22.765    
83C                 1:12      21.572    
83C                 1:15      20.380    
83C                 1:18      19.202    
83C                 1:21      18.049    
83C                 1:24      16.928    
83C                 1:27      15.847    
83C                 1:30      14.809    
83C                 1:33      13.820    
83C                 1:36      12.880    
83C                 1:39      11.991    
83C                 1:42      11.154    
83C                 1:45      10.368    
83C                 1:48      9.633     
83C                 1:51      8.948     
83C                 1:54      8.310     
83C                 1:57      7.718     
83C                 2:00      7.170     
83C                 2:03      6.664     
83C                 2:06      6.198     
83C                 2:09      5.769     
83C                 2:12      5.375     
83C                 2:15      5.013     
83C                 2:18      4.682     
83C                 2:21      4.380     
83C                 2:24      4.104     
83C                 2:27      3.852     
83C                 2:30      3.623     
83C                 2:33      3.415     
83C                 2:36      3.226     
83C                 2:39      3.054     
83C                 2:42      2.899     
83C                 2:45      2.758     
83C                 2:48      2.630     
83C                 2:51      2.515     
83C                 2:54      2.411     
83C                 2:57      2.317     
83C                 3:00      2.233     
83I                 0:00      0.500     
83I                 0:03      0.810     
83I                 0:06      1.577     
83I                 0:09      2.600     
83I                 0:12      3.736     
83I                 0:15      4.883     
83I                 0:18      5.972     
83I                 0:21      6.956     
83I                 0:24      7.810     
83I                 0:27      8.520     
83I                 0:30      9.083     
83I                 0:33      9.503     
83I                 0:36      9.788     
83I                 0:39      9.949     
83I                 0:42      10.000    
83I                 0:45      9.954     
83I                 0:48      9.824     
83I                 0:51      9.625     
83I                 0:54      9.368     
83I                 0:57      9.066     
83I                 1:00      8.728     
83I                 1:03      8.363     
83I                 1:06      7.981     
83I                 1:09      7.588     
83I                 1:12      7.191     
83I                 1:15      6.793     
83I                 1:18      6.401     
83I                 1:21      6.016     
83I                 1:24      5.643     
83I                 1:27      5.282     
83I                 1:30      4.936     
83I                 1:33      4.607     
83I                 1:36      4.293     
83I                 1:39      3.997     
83I                 1:42      3.718     
83I                 1:45      3.456     
83I                 1:48      3.211     
83I                 1:51      2.983     
83I                 1:54      2.770     
83I                 1:57      2.573     
83I                 2:00      2.390     
83I                 2:03      2.221     
83I                 2:06      2.066     
83I                 2:09      1.923     
83I                 2:12      1.792     
83I                 2:15      1.671     
83I                 2:18      1.561     
83I                 2:21      1.460     
83I                 2:24      1.368     
83I                 2:27      1.284     
83I                 2:30      1.208     
83I                 2:33      1.138     
83I                 2:36      1.075     
83I                 2:39      1.018     
83I                 2:42      0.966     
83I                 2:45      0.919     
83I                 2:48      0.877     
83I                 2:51      0.838     
83I                 2:54      0.804     
83I                 2:57      0.772     
83I                 3:00      0.744     
84C                 0:00      0.975     
84C                 0:03      1.580     
84C                 0:06      3.074     
84C                 0:09      5.070     
84C                 0:12      7.285     
84C                 0:15      9.522     
84C                 0:18      11.644    
84C                 0:21      13.564    
84C                 0:24      15.229    
84C                 0:27      16.614    
84C                 0:30      17.712    
84C                 0:33      18.531    
84C                 0:36      19.086    
84C                 0:39      19.401    
84C                 0:42      19.500    
84C                 0:45      19.410    
84C                 0:48      19.158    
84C                 0:51      18.769    
84C                 0:54      18.268    
84C                 0:57      17.678    
84C                 1:00      17.019    
84C                 1:03      16.309    
84C                 1:06      15.564    
84C                 1:09      14.797    
84C                 1:12      14.022    
84C                 1:15      13.247    
84C                 1:18      12.482    
84C                 1:21      11.732    
84C                 1:24      11.003    
84C                 1:27      10.300    
84C                 1:30      9.626     
84C                 1:33      8.983     
84C                 1:36      8.372     
84C                 1:39      7.794     
84C                 1:42      7.250     
84C                 1:45      6.739     
84C                 1:48      6.262     
84C                 1:51      5.816     
84C                 1:54      5.401     
84C                 1:57      5.017     
84C                 2:00      4.661     
84C                 2:03      4.332     
84C                 2:06      4.029     
84C                 2:09      3.750     
84C                 2:12      3.494     
84C                 2:15      3.259     
84C                 2:18      3.044     
84C                 2:21      2.847     
84C                 2:24      2.668     
84C                 2:27      2.504     
84C                 2:30      2.355     
84C                 2:33      2.220     
84C                 2:36      2.097     
84C                 2:39      1.985     
84C                 2:42      1.884     
84C                 2:45      1.793     
84C                 2:48      1.710     
84C                 2:51      1.635     
84C                 2:54      1.567     
84C                 2:57      1.506     
84C                 3:00      1.451     
84I                 0:00      0.325     
84I                 0:03      0.527     
84I                 0:06      1.025     
84I                 0:09      1.690     
84I                 0:12      2.428     
84I                 0:15      3.174     
84I                 0:18      3.881     
84I                 0:21      4.521     
84I                 0:24      5.076     
84I                 0:27      5.538     
84I                 0:30      5.904     
84I                 0:33      6.177     
84I                 0:36      6.362     
84I                 0:39      6.467     
84I                 0:42      6.500     
84I                 0:45      6.470     
84I                 0:48      6.386     
84I                 0:51      6.256     
84I                 0:54      6.089     
84I                 0:57      5.893     
84I                 1:00      5.673     
84I                 1:03      5.436     
84I                 1:06      5.188     
84I                 1:09      4.932     
84I                 1:12      4.674     
84I                 1:15      4.416     
84I                 1:18      4.161     
84I                 1:21      3.911     
84I                 1:24      3.668     
84I                 1:27      3.433     
84I                 1:30      3.209     
84I                 1:33      2.994     
84I                 1:36      2.791     
84I                 1:39      2.598     
84I                 1:42      2.417     
84I                 1:45      2.246     
84I                 1:48      2.087     
84I                 1:51      1.939     
84I                 1:54      1.800     
84I                 1:57      1.672     
84I                 2:00      1.554     
84I                 2:03      1.444     
84I                 2:06      1.343     
84I                 2:09      1.250     
84I                 2:12      1.165     
84I                 2:15      1.086     
84I                 2:18      1.015     
84I                 2:21      0.949     
84I                 2:24      0.889     
84I                 2:27      0.835     
84I                 2:30      0.785     
84I                 2:33      0.740     
84I                 2:36      0.699     
84I                 2:39      0.662     
84I                 2:42      0.628     
84I                 2:45      0.598     
84I                 2:48      0.570     
84I                 2:51      0.545     
84I                 2:54      0.522     
84I                 2:57      0.502     
84I                 3:00      0.484     
85C                 0:00      0.900     
85C                 0:03      1.459     
85C                 0:06      2.838     
85C                 0:09      4.680     
85C                 0:12      6.725     
85C                 0:15      8.790     
85C                 0:18      10.749    
85C                 0:21      12.521    
85C                 0:24      14.057    
85C                 0:27      15.336    
85C                 0:30      16.349    
85C                 0:33      17.105    
85C                 0:36      17.618    
85C                 0:39      17.909    
85C                 0:42      18.000    
85C                 0:45      17.917    
85C                 0:48      17.684    
85C                 0:51      17.325    
85C                 0:54      16.863    
85C                 0:57      16.318    
85C                 1:00      15.710    
85C                 1:03      15.054    
85C                 1:06      14.366    
85C                 1:09      13.659    
85C                 1:12      12.943    
85C                 1:15      12.228    
85C                 1:18      11.521    
85C                 1:21      10.829    
85C                 1:24      10.157    
85C                 1:27      9.508     
85C                 1:30      8.886     
85C                 1:33      8.292     
85C                 1:36      7.728     
85C                 1:39      7.195     
85C                 1:42      6.692     
85C                 1:45      6.221     
85C                 1:48      5.780     
85C                 1:51      5.369     
85C                 1:54      4.986     
85C                 1:57      4.631     
85C                 2:00      4.302     
85C                 2:03      3.999     
85C                 2:06      3.719     
85C                 2:09      3.461     
85C                 2:12      3.225     
85C                 2:15      3.008     
85C                 2:18      2.809     
85C                 2:21      2.628     
85C                 2:24      2.462     
85C                 2:27      2.311     
85C                 2:30      2.174     
85C                 2:33      2.049     
85C                 2:36      1.935     
85C                 2:39      1.833     
85C                 2:42      1.739     
85C                 2:45      1.655     
85C                 2:48      1.578     
85C                 2:51      1.509     
85C                 2:54      1.447     
85C                 2:57      1.390     
85C                 3:00      1.340     
86C                 0:00      0.100     
86C                 0:03      0.162     
86C                 0:06      0.315     
86C                 0:09      0.520     
86C                 0:12      0.747     
86C                 0:15      0.977     
86C                 0:18      1.194     
86C                 0:21      1.391     
86C                 0:24      1.562     
86C                 0:27      1.704     
86C                 0:30      1.817     
86C                 0:33      1.901     
86C                 0:36      1.958     
86C                 0:39      1.990     
86C                 0:42      2.000     
86C                 0:45      1.991     
86C                 0:48      1.965     
86C                 0:51      1.925     
86C                 0:54      1.874     
86C                 0:57      1.813     
86C                 1:00      1.746     
86C                 1:03      1.673     
86C                 1:06      1.596     
86C                 1:09      1.518     
86C                 1:12      1.438     
86C                 1:15      1.359     
86C                 1:18      1.280     
86C                 1:21      1.203     
86C                 1:24      1.129     
86C                 1:27      1.056     
86C                 1:30      0.987     
86C                 1:33      0.921     
86C                 1:36      0.859     
86C                 1:39      0.799     
86C                 1:42      0.744     
86C                 1:45      0.691     
86C                 1:48      0.642     
86C                 1:51      0.597     
86C                 1:54      0.554     
86C                 1:57      0.515     
86C                 2:00      0.478     
86C                 2:03      0.444     
86C                 2:06      0.413     
86C                 2:09      0.385     
86C                 2:12      0.358     
86C                 2:15      0.334     
86C                 2:18      0.312     
86C                 2:21      0.292     
86C                 2:24      0.274     
86C                 2:27      0.257     
86C                 2:30      0.242     
86C                 2:33      0.228     
86C                 2:36      0.215     
86C                 2:39      0.204     
86C                 2:42      0.193     
86C                 2:45      0.184     
86C                 2:48      0.175     
86C                 2:51      0.168     
86C                 2:54      0.161     
86C                 2:57      0.154     
86C                 3:00      0.149     
86I                 0:00      1.600     
86I                 0:03      2.593     
86I                 0:06      5.045     
86I                 0:09      8.319     
86I                 0:12      11.955    
86I                 0:15      15.626    
86I                 0:18      19.109    
86I                 0:21      22.259    
86I                 0:24      24.991    
86I                 0:27      27.263    
86I                 0:30      29.065    
86I                 0:33      30.409    
86I                 0:36      31.321    
86I                 0:39      31.838    
86I                 0:42      32.000    
86I                 0:45      31.852    
86I                 0:48      31.438    
86I                 0:51      30.800    
86I                 0:54      29.979    
86I                 0:57      29.010    
86I                 1:00      27.928    
86I                 1:03      26.763    
86I                 1:06      25.540    
86I                 1:09      24.283    
86I                 1:12      23.010    
86I                 1:15      21.739    
86I                 1:18      20.482    
86I                 1:21      19.252    
86I                 1:24      18.057    
86I                 1:27      16.903    
86I                 1:30      15.797    
86I                 1:33      14.741    
86I                 1:36      13.738    
86I                 1:39      12.790    
86I                 1:42      11.898    
86I                 1:45      11.060    
86I                 1:48      10.276    
86I                 1:51      9.544     
86I                 1:54      8.864     
86I                 1:57      8.233     
86I                 2:00      7.648     
86I                 2:03      7.109     
86I                 2:06      6.611     
86I                 2:09      6.153     
86I                 2:12      5.733     
86I                 2:15      5.347     
86I                 2:18      4.995     
86I                 2:21      4.672     
86I                 2:24      4.378     
86I                 2:27      4.109     
86I                 2:30      3.865     
86I                 2:33      3.643     
86I                 2:36      3.441     
86I                 2:39      3.258     
86I                 2:42      3.092     
86I                 2:45      2.942     
86I                 2:48      2.806     
86I                 2:51      2.683     
86I                 2:54      2.572     
86I                 2:57      2.472     
86I                 3:00      2.382     
87C                 0:00      -0.000    
87C                 0:03      -0.000    
87C                 0:06      -0.000    
87C                 0:09      -0.000    
87C                 0:12      -0.000    
87C                 0:15      -0.000    
87C                 0:18      -0.000    
87C                 0:21      -0.000    
87C                 0:24      -0.000    
87C                 0:27      -0.000    
87C                 0:30      -0.000    
87C                 0:33      -0.000    
87C                 0:36      -0.000    
87C                 0:39      -0.000    
87C                 0:42      -0.000    
87C                 0:45      -0.000    
87C                 0:48      -0.000    
87C                 0:51      -0.000    
87C                 0:54      -0.000    
87C                 0:57      -0.000    
87C                 1:00      -0.000    
87C                 1:03      -0.000    
87C                 1:06      -0.000    
87C                 1:09      -0.000    
87C                 1:12      -0.000    
87C                 1:15      -0.000    
87C                 1:18      -0.000    
87C                 1:21      -0.000    
87C                 1:24      -0.000    
87C                 1:27      -0.000    
87C                 1:30      -0.000    
87C                 1:33      -0.000    
87C                 1:36      -0.000    
87C                 1:39      -0.000    
87C                 1:42      -0.000    
87C                 1:45      -0.000    
87C                 1:48      -0.000    
87C                 1:51      -0.000    
87C                 1:54      -0.000    
87C                 1:57      -0.000    
87C                 2:00      -0.000    
87C                 2:03      -0.000    
87C                 2:06      -0.000    
87C                 2:09      -0.000    
87C                 2:12      -0.000    
87C                 2:15      -0.000    
87C                 2:18      -0.000    
87C                 2:21      -0.000    
87C                 2:24      -0.000    
87C                 2:27      -0.000    
87C                 2:30      -0.000    
87C                 2:33      -0.000    
87C                 2:36      -0.000    
87C                 2:39      -0.000    
87C                 2:42      -0.000    
87C                 2:45      -0.000    
87C                 2:48      -0.000    
87C                 2:51      -0.000    
87C                 2:54      -0.000    
87C                 2:57      -0.000    
87C                 3:00      -0.000    
87I                 0:00      2.600     
87I                 0:03      4.214     
87I                 0:06      8.198     
87I                 0:09      13.519    
87I                 0:12      19.427    
87I                 0:15      25.392    
87I                 0:18      31.052    
87I                 0:21      36.171    
87I                 0:24      40.610    
87I                 0:27      44.303    
87I                 0:30      47.231    
87I                 0:33      49.415    
87I                 0:36      50.897    
87I                 0:39      51.736    
87I                 0:42      52.000    
87I                 0:45      51.760    
87I                 0:48      51.087    
87I                 0:51      50.051    
87I                 0:54      48.716    
87I                 0:57      47.142    
87I                 1:00      45.384    
87I                 1:03      43.490    
87I                 1:06      41.503    
87I                 1:09      39.459    
87I                 1:12      37.391    
87I                 1:15      35.326    
87I                 1:18      33.284    
87I                 1:21      31.285    
87I                 1:24      29.342    
87I                 1:27      27.468    
87I                 1:30      25.670    
87I                 1:33      23.954    
87I                 1:36      22.325    
87I                 1:39      20.784    
87I                 1:42      19.334    
87I                 1:45      17.972    
87I                 1:48      16.698    
87I                 1:51      15.509    
87I                 1:54      14.404    
87I                 1:57      13.378    
87I                 2:00      12.429    
87I                 2:03      11.552    
87I                 2:06      10.743    
87I                 2:09      9.999     
87I                 2:12      9.316     
87I                 2:15      8.690     
87I                 2:18      8.116     
87I                 2:21      7.592     
87I                 2:24      7.114     
87I                 2:27      6.677     
87I                 2:30      6.280     
87I                 2:33      5.919     
87I                 2:36      5.591     
87I                 2:39      5.294     
87I                 2:42      5.024     
87I                 2:45      4.780     
87I                 2:48      4.559     
87I                 2:51      4.360     
87I                 2:54      4.179     
87I                 2:57      4.017     
87I                 3:00      3.870     
88C                 0:00      1.700     
88C                 0:03      2.756     
88C                 0:06      5.360     
88C                 0:09      8.839     
88C                 0:12      12.702    
88C                 0:15      16.603    
88C                 0:18      20.303    
88C                 0:21      23.650    
88C                 0:24      26.553    
88C                 0:27      28.967    
88C                 0:30      30.882    
88C                 0:33      32.310    
88C                 0:36      33.279    
88C                 0:39      33.827    
88C                 0:42      34.000    
88C                 0:45      33.843    
88C                 0:48      33.403    
88C                 0:51      32.725    
88C                 0:54      31.852    
88C                 0:57      30.823    
88C                 1:00      29.674    
88C                 1:03      28.436    
88C                 1:06      27.136    
88C                 1:09      25.800    
88C                 1:12      24.448    
88C                 1:15      23.098    
88C                 1:18      21.763    
88C                 1:21      20.455    
88C                 1:24      19.185    
88C                 1:27      17.960    
88C                 1:30      16.784    
88C                 1:33      15.662    
88C                 1:36      14.597    
88C                 1:39      13.590    
88C                 1:42      12.641    
88C                 1:45      11.751    
88C                 1:48      10.918    
88C                 1:51      10.141    
88C                 1:54      9.418     
88C                 1:57      8.747     
88C                 2:00      8.126     
88C                 2:03      7.553     
88C                 2:06      7.024     
88C                 2:09      6.538     
88C                 2:12      6.091     
88C                 2:15      5.682     
88C                 2:18      5.307     
88C                 2:21      4.964     
88C                 2:24      4.651     
88C                 2:27      4.366     
88C                 2:30      4.106     
88C                 2:33      3.870     
88C                 2:36      3.656     
88C                 2:39      3.461     
88C                 2:42      3.285     
88C                 2:45      3.125     
88C                 2:48      2.981     
88C                 2:51      2.851     
88C                 2:54      2.733     
88C                 2:57      2.626     
88C                 3:00      2.530     
89C                 0:00      0.900     
89C                 0:03      1.459     
89C                 0:06      2.838     
89C                 0:09      4.680     
89C                 0:12      6.725     
89C                 0:15      8.790     
89C                 0:18      10.749    
89C                 0:21      12.521    
89C                 0:24      14.057    
89C                 0:27      15.336    
89C                 0:30      16.349    
89C                 0:33      17.105    
89C                 0:36      17.618    
89C                 0:39      17.909    
89C                 0:42      18.000    
89C                 0:45      17.917    
89C                 0:48      17.684    
89C                 0:51      17.325    
89C                 0:54      16.863    
89C                 0:57      16.318    
89C                 1:00      15.710    
89C                 1:03      15.054    
89C                 1:06      14.366    
89C                 1:09      13.659    
89C                 1:12      12.943    
89C                 1:15      12.228    
89C                 1:18      11.521    
89C                 1:21      10.829    
89C                 1:24      10.157    
89C                 1:27      9.508     
89C                 1:30      8.886     
89C                 1:33      8.292     
89C                 1:36      7.728     
89C                 1:39      7.195     
89C                 1:42      6.692     
89C                 1:45      6.221     
89C                 1:48      5.780     
89C                 1:51      5.369     
89C                 1:54      4.986     
89C                 1:57      4.631     
89C                 2:00      4.302     
89C                 2:03      3.999     
89C                 2:06      3.719     
89C                 2:09      3.461     
89C                 2:12      3.225     
89C                 2:15      3.008     
89C                 2:18      2.809     
89C                 2:21      2.628     
89C                 2:24      2.462     
89C                 2:27      2.311     
89C                 2:30      2.174     
89C                 2:33      2.049     
89C                 2:36      1.935     
89C                 2:39      1.833     
89C                 2:42      1.739     
89C                 2:45      1.655     
89C                 2:48      1.578     
89C                 2:51      1.509     
89C                 2:54      1.447     
89C                 2:57      1.390     
89C                 3:00      1.340     
90C                 0:00      1.275     
90C                 0:03      2.067     
90C                 0:06      4.020     
90C                 0:09      6.629     
90C                 0:12      9.527     
90C                 0:15      12.452    
90C                 0:18      15.227    
90C                 0:21      17.738    
90C                 0:24      19.915    
90C                 0:27      21.725    
90C                 0:30      23.161    
90C                 0:33      24.232    
90C                 0:36      24.959    
90C                 0:39      25.371    
90C                 0:42      25.500    
90C                 0:45      25.382    
90C                 0:48      25.052    
90C                 0:51      24.544    
90C                 0:54      23.889    
90C                 0:57      23.118    
90C                 1:00      22.255    
90C                 1:03      21.327    
90C                 1:06      20.352    
90C                 1:09      19.350    
90C                 1:12      18.336    
90C                 1:15      17.323    
90C                 1:18      16.322    
90C                 1:21      15.342    
90C                 1:24      14.389    
90C                 1:27      13.470    
90C                 1:30      12.588    
90C                 1:33      11.747    
90C                 1:36      10.948    
90C                 1:39      10.192    
90C                 1:42      9.481     
90C                 1:45      8.813     
90C                 1:48      8.188     
90C                 1:51      7.606     
90C                 1:54      7.063     
90C                 1:57      6.560     
90C                 2:00      6.095     
90C                 2:03      5.665     
90C                 2:06      5.268     
90C                 2:09      4.903     
90C                 2:12      4.568     
90C                 2:15      4.261     
90C                 2:18      3.980     
90C                 2:21      3.723     
90C                 2:24      3.488     
90C                 2:27      3.275     
90C                 2:30      3.080     
90C                 2:33      2.903     
90C                 2:36      2.742     
90C                 2:39      2.596     
90C                 2:42      2.464     
90C                 2:45      2.344     
90C                 2:48      2.236     
90C                 2:51      2.138     
90C                 2:54      2.049     
90C                 2:57      1.970     
90C                 3:00      1.898     
90I                 0:00      0.425     
90I                 0:03      0.689     
90I                 0:06      1.340     
90I                 0:09      2.210     
90I                 0:12      3.176     
90I                 0:15      4.151     
90I                 0:18      5.076     
90I                 0:21      5.913     
90I                 0:24      6.638     
90I                 0:27      7.242     
90I                 0:30      7.720     
90I                 0:33      8.077     
90I                 0:36      8.320     
90I                 0:39      8.457     
90I                 0:42      8.500     
90I                 0:45      8.461     
90I                 0:48      8.351     
90I                 0:51      8.181     
90I                 0:54      7.963     
90I                 0:57      7.706     
90I                 1:00      7.418     
90I                 1:03      7.109     
90I                 1:06      6.784     
90I                 1:09      6.450     
90I                 1:12      6.112     
90I                 1:15      5.774     
90I                 1:18      5.441     
90I                 1:21      5.114     
90I                 1:24      4.796     
90I                 1:27      4.490     
90I                 1:30      4.196     
90I                 1:33      3.916     
90I                 1:36      3.649     
90I                 1:39      3.397     
90I                 1:42      3.160     
90I                 1:45      2.938     
90I                 1:48      2.729     
90I                 1:51      2.535     
90I                 1:54      2.354     
90I                 1:57      2.187     
90I                 2:00      2.032     
90I                 2:03      1.888     
90I                 2:06      1.756     
90I                 2:09      1.634     
90I                 2:12      1.523     
90I                 2:15      1.420     
90I                 2:18      1.327     
90I                 2:21      1.241     
90I                 2:24      1.163     
90I                 2:27      1.092     
90I                 2:30      1.027     
90I                 2:33      0.968     
90I                 2:36      0.914     
90I                 2:39      0.865     
90I                 2:42      0.821     
90I                 2:45      0.781     
90I                 2:48      0.745     
90I                 2:51      0.713     
90I                 2:54      0.683     
90I                 2:57      0.657     
90I                 3:00      0.633     
91C                 0:00      0.000     
91C                 0:03      0.000     
91C                 0:06      0.000     
91C                 0:09      0.000     
91C                 0:12      0.000     
91C                 0:15      0.000     
91C                 0:18      0.000     
91C                 0:21      0.000     
91C                 0:24      0.000     
91C                 0:27      0.000     
91C                 0:30      0.000     
91C                 0:33      0.000     
91C                 0:36      0.000     
91C                 0:39      0.000     
91C                 0:42      0.000     
91C                 0:45      0.000     
91C                 0:48      0.000     
91C                 0:51      0.000     
91C                 0:54      0.000     
91C                 0:57      0.000     
91C                 1:00      0.000     
91C                 1:03      0.000     
91C                 1:06      0.000     
91C                 1:09      0.000     
91C                 1:12      0.000     
91C                 1:15      0.000     
91C                 1:18      0.000     
91C                 1:21      0.000     
91C                 1:24      0.000     
91C                 1:27      0.000     
91C                 1:30      0.000     
91C                 1:33      0.000     
91C                 1:36      0.000     
91C                 1:39      0.000     
91C                 1:42      0.000     
91C                 1:45      0.000     
91C                 1:48      0.000     
91C                 1:51      0.000     
91C                 1:54      0.000     
91C                 1:57      0.000     
91C                 2:00      0.000     
91C                 2:03      0.000     
91C                 2:06      0.000     
91C                 2:09      0.000     
91C                 2:12      0.000     
91C                 2:15      0.000     
91C                 2:18      0.000     
91C                 2:21      0.000     
91C                 2:24      0.000     
91C                 2:27      0.000     
91C                 2:30      0.000     
91C                 2:33      0.000     
91C                 2:36      0.000     
91C                 2:39      0.000     
91C                 2:42      0.000     
91C                 2:45      0.000     
91C                 2:48      0.000     
91C                 2:51      0.000     
91C                 2:54      0.000     
91C                 2:57      0.000     
91C                 3:00      0.000     
91I                 0:00      0.625     
91I                 0:03      1.013     
91I                 0:06      1.971     
91I                 0:09      3.250     
91I                 0:12      4.670     
91I                 0:15      6.104     
91I                 0:18      7.464     
91I                 0:21      8.695     
91I                 0:24      9.762     
91I                 0:27      10.650    
91I                 0:30      11.354    
91I                 0:33      11.879    
91I                 0:36      12.235    
91I                 0:39      12.437    
91I                 0:42      12.500    
91I                 0:45      12.442    
91I                 0:48      12.281    
91I                 0:51      12.031    
91I                 0:54      11.710    
91I                 0:57      11.332    
91I                 1:00      10.910    
91I                 1:03      10.454    
91I                 1:06      9.977     
91I                 1:09      9.485     
91I                 1:12      8.988     
91I                 1:15      8.492     
91I                 1:18      8.001     
91I                 1:21      7.520     
91I                 1:24      7.053     
91I                 1:27      6.603     
91I                 1:30      6.171     
91I                 1:33      5.758     
91I                 1:36      5.367     
91I                 1:39      4.996     
91I                 1:42      4.647     
91I                 1:45      4.320     
91I                 1:48      4.014     
91I                 1:51      3.728     
91I                 1:54      3.462     
91I                 1:57      3.216     
91I                 2:00      2.988     
91I                 2:03      2.777     
91I                 2:06      2.582     
91I                 2:09      2.404     
91I                 2:12      2.239     
91I                 2:15      2.089     
91I                 2:18      1.951     
91I                 2:21      1.825     
91I                 2:24      1.710     
91I                 2:27      1.605     
91I                 2:30      1.510     
91I                 2:33      1.423     
91I                 2:36      1.344     
91I                 2:39      1.273     
91I                 2:42      1.208     
91I                 2:45      1.149     
91I                 2:48      1.096     
91I                 2:51      1.048     
91I                 2:54      1.005     
91I                 2:57      0.966     
91I                 3:00      0.930     
91Ib                0:00      1.875     
91Ib                0:03      3.039     
91Ib                0:06      5.912     
91Ib                0:09      9.749     
91Ib                0:12      14.010    
91Ib                0:15      18.312    
91Ib                0:18      22.393    
91Ib                0:21      26.085    
91Ib                0:24      29.286    
91Ib                0:27      31.949    
91Ib                0:30      34.061    
91Ib                0:33      35.636    
91Ib                0:36      36.704    
91Ib                0:39      37.310    
91Ib                0:42      37.500    
91Ib                0:45      37.327    
91Ib                0:48      36.842    
91Ib                0:51      36.094    
91Ib                0:54      35.131    
91Ib                0:57      33.996    
91Ib                1:00      32.729    
91Ib                1:03      31.363    
91Ib                1:06      29.930    
91Ib                1:09      28.456    
91Ib                1:12      26.965    
91Ib                1:15      25.475    
91Ib                1:18      24.003    
91Ib                1:21      22.561    
91Ib                1:24      21.160    
91Ib                1:27      19.808    
91Ib                1:30      18.512    
91Ib                1:33      17.275    
91Ib                1:36      16.100    
91Ib                1:39      14.989    
91Ib                1:42      13.942    
91Ib                1:45      12.960    
91Ib                1:48      12.042    
91Ib                1:51      11.185    
91Ib                1:54      10.387    
91Ib                1:57      9.648     
91Ib                2:00      8.963     
91Ib                2:03      8.331     
91Ib                2:06      7.747     
91Ib                2:09      7.211     
91Ib                2:12      6.718     
91Ib                2:15      6.267     
91Ib                2:18      5.853     
91Ib                2:21      5.475     
91Ib                2:24      5.130     
91Ib                2:27      4.815     
91Ib                2:30      4.529     
91Ib                2:33      4.269     
91Ib                2:36      4.032     
91Ib                2:39      3.818     
91Ib                2:42      3.623     
91Ib                2:45      3.447     
91Ib                2:48      3.288     
91Ib                2:51      3.144     
91Ib                2:54      3.014     
91Ib                2:57      2.897     
91Ib                3:00      2.791     
92C                 0:00      1.600     
92C                 0:03      2.593     
92C                 0:06      5.045     
92C                 0:09      8.319     
92C                 0:12      11.955    
92C                 0:15      15.626    
92C                 0:18      19.109    
92C                 0:21      22.259    
92C                 0:24      24.991    
92C                 0:27      27.263    
92C                 0:30      29.065    
92C                 0:33      30.409    
92C                 0:36      31.321    
92C                 0:39      31.838    
92C                 0:42      32.000    
92C                 0:45      31.852    
92C                 0:48      31.438    
92C                 0:51      30.800    
92C                 0:54      29.979    
92C                 0:57      29.010    
92C                 1:00      27.928    
92C                 1:03      26.763    
92C                 1:06      25.540    
92C                 1:09      24.283    
92C                 1:12      23.010    
92C                 1:15      21.739    
92C                 1:18      20.482    
92C                 1:21      19.252    
92C                 1:24      18.057    
92C                 1:27      16.903    
92C                 1:30      15.797    
92C                 1:33      14.741    
92C                 1:36      13.738    
92C                 1:39      12.790    
92C                 1:42      11.898    
92C                 1:45      11.060    
92C                 1:48      10.276    
92C                 1:51      9.544     
92C                 1:54      8.864     
92C                 1:57      8.233     
92C                 2:00      7.648     
92C                 2:03      7.109     
92C                 2:06      6.611     
92C                 2:09      6.153     
92C                 2:12      5.733     
92C                 2:15      5.347     
92C                 2:18      4.995     
92C                 2:21      4.672     
92C                 2:24      4.378     
92C                 2:27      4.109     
92C                 2:30      3.865     
92C                 2:33      3.643     
92C                 2:36      3.441     
92C                 2:39      3.258     
92C                 2:42      3.092     
92C                 2:45      2.942     
92C                 2:48      2.806     
92C                 2:51      2.683     
92C                 2:54      2.572     
92C                 2:57      2.472     
92C                 3:00      2.382     
93C                 0:00      0.800     
93C                 0:03      1.297     
93C                 0:06      2.522     
93C                 0:09      4.160     
93C                 0:12      5.978     
93C                 0:15      7.813     
93C                 0:18      9.554     
93C                 0:21      11.129    
93C                 0:24      12.496    
93C                 0:27      13.632    
93C                 0:30      14.533    
93C                 0:33      15.205    
93C                 0:36      15.661    
93C                 0:39      15.919    
93C                 0:42      16.000    
93C                 0:45      15.926    
93C                 0:48      15.719    
93C                 0:51      15.400    
93C                 0:54      14.989    
93C                 0:57      14.505    
93C                 1:00      13.964    
93C                 1:03      13.381    
93C                 1:06      12.770    
93C                 1:09      12.141    
93C                 1:12      11.505    
93C                 1:15      10.869    
93C                 1:18      10.241    
93C                 1:21      9.626     
93C                 1:24      9.028     
93C                 1:27      8.452     
93C                 1:30      7.898     
93C                 1:33      7.370     
93C                 1:36      6.869     
93C                 1:39      6.395     
93C                 1:42      5.949     
93C                 1:45      5.530     
93C                 1:48      5.138     
93C                 1:51      4.772     
93C                 1:54      4.432     
93C                 1:57      4.116     
93C                 2:00      3.824     
93C                 2:03      3.554     
93C                 2:06      3.306     
93C                 2:09      3.077     
93C                 2:12      2.866     
93C                 2:15      2.674     
93C                 2:18      2.497     
93C                 2:21      2.336     
93C                 2:24      2.189     
93C                 2:27      2.055     
93C                 2:30      1.932     
93C                 2:33      1.821     
93C                 2:36      1.720     
93C                 2:39      1.629     
93C                 2:42      1.546     
93C                 2:45      1.471     
93C                 2:48      1.403     
93C                 2:51      1.341     
93C                 2:54      1.286     
93C                 2:57      1.236     
93C                 3:00      1.191     
94C                 0:00      1.275     
94C                 0:03      2.067     
94C                 0:06      4.020     
94C                 0:09      6.629     
94C                 0:12      9.527     
94C                 0:15      12.452    
94C                 0:18      15.227    
94C                 0:21      17.738    
94C                 0:24      19.915    
94C                 0:27      21.725    
94C                 0:30      23.161    
94C                 0:33      24.232    
94C                 0:36      24.959    
94C                 0:39      25.371    
94C                 0:42      25.500    
94C                 0:45      25.382    
94C                 0:48      25.052    
94C                 0:51      24.544    
94C                 0:54      23.889    
94C                 0:57      23.118    
94C                 1:00      22.255    
94C                 1:03      21.327    
94C                 1:06      20.352    
94C                 1:09      19.350    
94C                 1:12      18.336    
94C                 1:15      17.323    
94C                 1:18      16.322    
94C                 1:21      15.342    
94C                 1:24      14.389    
94C                 1:27      13.470    
94C                 1:30      12.588    
94C                 1:33      11.747    
94C                 1:36      10.948    
94C                 1:39      10.192    
94C                 1:42      9.481     
94C                 1:45      8.813     
94C                 1:48      8.188     
94C                 1:51      7.606     
94C                 1:54      7.063     
94C                 1:57      6.560     
94C                 2:00      6.095     
94C                 2:03      5.665     
94C                 2:06      5.268     
94C                 2:09      4.903     
94C                 2:12      4.568     
94C                 2:15      4.261     
94C                 2:18      3.980     
94C                 2:21      3.723     
94C                 2:24      3.488     
94C                 2:27      3.275     
94C                 2:30      3.080     
94C                 2:33      2.903     
94C                 2:36      2.742     
94C                 2:39      2.596     
94C                 2:42      2.464     
94C                 2:45      2.344     
94C                 2:48      2.236     
94C                 2:51      2.138     
94C                 2:54      2.049     
94C                 2:57      1.970     
94C                 3:00      1.898     
94I                 0:00      0.425     
94I                 0:03      0.689     
94I                 0:06      1.340     
94I                 0:09      2.210     
94I                 0:12      3.176     
94I                 0:15      4.151     
94I                 0:18      5.076     
94I                 0:21      5.913     
94I                 0:24      6.638     
94I                 0:27      7.242     
94I                 0:30      7.720     
94I                 0:33      8.077     
94I                 0:36      8.320     
94I                 0:39      8.457     
94I                 0:42      8.500     
94I                 0:45      8.461     
94I                 0:48      8.351     
94I                 0:51      8.181     
94I                 0:54      7.963     
94I                 0:57      7.706     
94I                 1:00      7.418     
94I                 1:03      7.109     
94I                 1:06      6.784     
94I                 1:09      6.450     
94I                 1:12      6.112     
94I                 1:15      5.774     
94I                 1:18      5.441     
94I                 1:21      5.114     
94I                 1:24      4.796     
94I                 1:27      4.490     
94I                 1:30      4.196     
94I                 1:33      3.916     
94I                 1:36      3.649     
94I                 1:39      3.397     
94I                 1:42      3.160     
94I                 1:45      2.938     
94I                 1:48      2.729     
94I                 1:51      2.535     
94I                 1:54      2.354     
94I                 1:57      2.187     
94I                 2:00      2.032     
94I                 2:03      1.888     
94I                 2:06      1.756     
94I                 2:09      1.634     
94I                 2:12      1.523     
94I                 2:15      1.420     
94I                 2:18      1.327     
94I                 2:21      1.241     
94I                 2:24      1.163     
94I                 2:27      1.092     
94I                 2:30      1.027     
94I                 2:33      0.968     
94I                 2:36      0.914     
94I                 2:39      0.865     
94I                 2:42      0.821     
94I                 2:45      0.781     
94I                 2:48      0.745     
94I                 2:51      0.713     
94I                 2:54      0.683     
94I                 2:57      0.657     
94I                 3:00      0.633     
95C                 0:00      1.700     
95C                 0:03      2.756     
95C                 0:06      5.360     
95C                 0:09      8.839     
95C                 0:12      12.702    
95C                 0:15      16.603    
95C                 0:18      20.303    
95C                 0:21      23.650    
95C                 0:24      26.553    
95C                 0:27      28.967    
95C                 0:30      30.882    
95C                 0:33      32.310    
95C                 0:36      33.279    
95C                 0:39      33.827    
95C                 0:42      34.000    
95C                 0:45      33.843    
95C                 0:48      33.403    
95C                 0:51      32.725    
95C                 0:54      31.852    
95C                 0:57      30.823    
95C                 1:00      29.674    
95C                 1:03      28.436    
95C                 1:06      27.136    
95C                 1:09      25.800    
95C                 1:12      24.448    
95C                 1:15      23.098    
95C                 1:18      21.763    
95C                 1:21      20.455    
95C                 1:24      19.185    
95C                 1:27      17.960    
95C                 1:30      16.784    
95C                 1:33      15.662    
95C                 1:36      14.597    
95C                 1:39      13.590    
95C                 1:42      12.641    
95C                 1:45      11.751    
95C                 1:48      10.918    
95C                 1:51      10.141    
95C                 1:54      9.418     
95C                 1:57      8.747     
95C                 2:00      8.126     
95C                 2:03      7.553     
95C                 2:06      7.024     
95C                 2:09      6.538     
95C                 2:12      6.091     
95C                 2:15      5.682     
95C                 2:18      5.307     
95C                 2:21      4.964     
95C                 2:24      4.651     
95C                 2:27      4.366     
95C                 2:30      4.106     
95C                 2:33      3.870     
95C                 2:36      3.656     
95C                 2:39      3.461     
95C                 2:42      3.285     
95C                 2:45      3.125     
95C                 2:48      2.981     
95C                 2:51      2.851     
95C                 2:54      2.733     
95C                 2:57      2.626     
95C                 3:00      2.530     
96I                 0:00      0.325     
96I                 0:03      0.527     
96I                 0:06      1.025     
96I                 0:09      1.690     
96I                 0:12      2.428     
96I                 0:15      3.174     
96I                 0:18      3.881     
96I                 0:21      4.521     
96I                 0:24      5.076     
96I                 0:27      5.538     
96I                 0:30      5.904     
96I                 0:33      6.177     
96I                 0:36      6.362     
96I                 0:39      6.467     
96I                 0:42      6.500     
96I                 0:45      6.470     
96I                 0:48      6.386     
96I                 0:51      6.256     
96I                 0:54      6.089     
96I                 0:57      5.893     
96I                 1:00      5.673     
96I                 1:03      5.436     
96I                 1:06      5.188     
96I                 1:09      4.932     
96I                 1:12      4.674     
96I                 1:15      4.416     
96I                 1:18      4.161     
96I                 1:21      3.911     
96I                 1:24      3.668     
96I                 1:27      3.433     
96I                 1:30      3.209     
96I                 1:33      2.994     
96I                 1:36      2.791     
96I                 1:39      2.598     
96I                 1:42      2.417     
96I                 1:45      2.246     
96I                 1:48      2.087     
96I                 1:51      1.939     
96I                 1:54      1.800     
96I                 1:57      1.672     
96I                 2:00      1.554     
96I                 2:03      1.444     
96I                 2:06      1.343     
96I                 2:09      1.250     
96I                 2:12      1.165     
96I                 2:15      1.086     
96I                 2:18      1.015     
96I                 2:21      0.949     
96I                 2:24      0.889     
96I                 2:27      0.835     
96I                 2:30      0.785     
96I                 2:33      0.740     
96I                 2:36      0.699     
96I                 2:39      0.662     
96I                 2:42      0.628     
96I                 2:45      0.598     
96I                 2:48      0.570     
96I                 2:51      0.545     
96I                 2:54      0.522     
96I                 2:57      0.502     
96I                 3:00      0.484     
96Ib                0:00      0.975     
96Ib                0:03      1.580     
96Ib                0:06      3.074     
96Ib                0:09      5.070     
96Ib                0:12      7.285     
96Ib                0:15      9.522     
96Ib                0:18      11.644    
96Ib                0:21      13.564    
96Ib                0:24      15.229    
96Ib                0:27      16.614    
96Ib                0:30      17.712    
96Ib                0:33      18.531    
96Ib                0:36      19.086    
96Ib                0:39      19.401    
96Ib                0:42      19.500    
96Ib                0:45      19.410    
96Ib                0:48      19.158    
96Ib                0:51      18.769    
96Ib                0:54      18.268    
96Ib                0:57      17.678    
96Ib                1:00      17.019    
96Ib                1:03      16.309    
96Ib                1:06      15.564    
96Ib                1:09      14.797    
96Ib                1:12      14.022    
96Ib                1:15      13.247    
96Ib                1:18      12.482    
96Ib                1:21      11.732    
96Ib                1:24      11.003    
96Ib                1:27      10.300    
96Ib                1:30      9.626     
96Ib                1:33      8.983     
96Ib                1:36      8.372     
96Ib                1:39      7.794     
96Ib                1:42      7.250     
96Ib                1:45      6.739     
96Ib                1:48      6.262     
96Ib                1:51      5.816     
96Ib                1:54      5.401     
96Ib                1:57      5.017     
96Ib                2:00      4.661     
96Ib                2:03      4.332     
96Ib                2:06      4.029     
96Ib                2:09      3.750     
96Ib                2:12      3.494     
96Ib                2:15      3.259     
96Ib                2:18      3.044     
96Ib                2:21      2.847     
96Ib                2:24      2.668     
96Ib                2:27      2.504     
96Ib                2:30      2.355     
96Ib                2:33      2.220     
96Ib                2:36      2.097     
96Ib                2:39      1.985     
96Ib                2:42      1.884     
96Ib                2:45      1.793     
96Ib                2:48      1.710     
96Ib                2:51      1.635     
96Ib                2:54      1.567     
96Ib                2:57      1.506     
96Ib                3:00      1.451     
97C                 0:00      1.575     
97C                 0:03      2.553     
97C                 0:06      4.966     
97C                 0:09      8.189     
97C                 0:12      11.768    
97C                 0:15      15.382    
97C                 0:18      18.810    
97C                 0:21      21.911    
97C                 0:24      24.601    
97C                 0:27      26.837    
97C                 0:30      28.611    
97C                 0:33      29.934    
97C                 0:36      30.832    
97C                 0:39      31.340    
97C                 0:42      31.500    
97C                 0:45      31.355    
97C                 0:48      30.947    
97C                 0:51      30.319    
97C                 0:54      29.510    
97C                 0:57      28.557    
97C                 1:00      27.492    
97C                 1:03      26.345    
97C                 1:06      25.141    
97C                 1:09      23.903    
97C                 1:12      22.651    
97C                 1:15      21.399    
97C                 1:18      20.162    
97C                 1:21      18.951    
97C                 1:24      17.775    
97C                 1:27      16.639    
97C                 1:30      15.550    
97C                 1:33      14.511    
97C                 1:36      13.524    
97C                 1:39      12.591    
97C                 1:42      11.712    
97C                 1:45      10.887    
97C                 1:48      10.115    
97C                 1:51      9.395     
97C                 1:54      8.725     
97C                 1:57      8.104     
97C                 2:00      7.529     
97C                 2:03      6.998     
97C                 2:06      6.508     
97C                 2:09      6.057     
97C                 2:12      5.643     
97C                 2:15      5.264     
97C                 2:18      4.917     
97C                 2:21      4.599     
97C                 2:24      4.309     
97C                 2:27      4.045     
97C                 2:30      3.804     
97C                 2:33      3.586     
97C                 2:36      3.387     
97C                 2:39      3.207     
97C                 2:42      3.044     
97C                 2:45      2.896     
97C                 2:48      2.762     
97C                 2:51      2.641     
97C                 2:54      2.532     
97C                 2:57      2.433     
97C                 3:00      2.344     
97I                 0:00      0.525     
97I                 0:03      0.851     
97I                 0:06      1.655     
97I                 0:09      2.730     
97I                 0:12      3.923     
97I                 0:15      5.127     
97I                 0:18      6.270     
97I                 0:21      7.304     
97I                 0:24      8.200     
97I                 0:27      8.946     
97I                 0:30      9.537     
97I                 0:33      9.978     
97I                 0:36      10.277    
97I                 0:39      10.447    
97I                 0:42      10.500    
97I                 0:45      10.452    
97I                 0:48      10.316    
97I                 0:51      10.106    
97I                 0:54      9.837     
97I                 0:57      9.519     
97I                 1:00      9.164     
97I                 1:03      8.782     
97I                 1:06      8.380     
97I                 1:09      7.968     
97I                 1:12      7.550     
97I                 1:15      7.133     
97I                 1:18      6.721     
97I                 1:21      6.317     
97I                 1:24      5.925     
97I                 1:27      5.546     
97I                 1:30      5.183     
97I                 1:33      4.837     
97I                 1:36      4.508     
97I                 1:39      4.197     
97I                 1:42      3.904     
97I                 1:45      3.629     
97I                 1:48      3.372     
97I                 1:51      3.132     
97I                 1:54      2.908     
97I                 1:57      2.701     
97I                 2:00      2.510     
97I                 2:03      2.333     
97I                 2:06      2.169     
97I                 2:09      2.019     
97I                 2:12      1.881     
97I                 2:15      1.755     
97I                 2:18      1.639     
97I                 2:21      1.533     
97I                 2:24      1.436     
97I                 2:27      1.348     
97I                 2:30      1.268     
97I                 2:33      1.195     
97I                 2:36      1.129     
97I                 2:39      1.069     
97I                 2:42      1.015     
97I                 2:45      0.965     
97I                 2:48      0.921     
97I                 2:51      0.880     
97I                 2:54      0.844     
97I                 2:57      0.811     
97I                 3:00      0.781     
98C                 0:00      1.350     
98C                 0:03      2.188     
98C                 0:06      4.257     
98C                 0:09      7.019     
98C                 0:12      10.087    
98C                 0:15      13.185    
98C                 0:18      16.123    
98C                 0:21      18.781    
98C                 0:24      21.086    
98C                 0:27      23.003    
98C                 0:30      24.524    
98C                 0:33      25.658    
98C                 0:36      26.427    
98C                 0:39      26.863    
98C                 0:42      27.000    
98C                 0:45      26.875    
98C                 0:48      26.526    
98C                 0:51      25.988    
98C                 0:54      25.295    
98C                 0:57      24.477    
98C                 1:00      23.565    
98C                 1:03      22.581    
98C                 1:06      21.549    
98C                 1:09      20.489    
98C                 1:12      19.415    
98C                 1:15      18.342    
98C                 1:18      17.282    
98C                 1:21      16.244    
98C                 1:24      15.235    
98C                 1:27      14.262    
98C                 1:30      13.328    
98C                 1:33      12.438    
98C                 1:36      11.592    
98C                 1:39      10.792    
98C                 1:42      10.039    
98C                 1:45      9.331     
98C                 1:48      8.670     
98C                 1:51      8.053     
98C                 1:54      7.479     
98C                 1:57      6.946     
98C                 2:00      6.453     
98C                 2:03      5.998     
98C                 2:06      5.578     
98C                 2:09      5.192     
98C                 2:12      4.837     
98C                 2:15      4.512     
98C                 2:18      4.214     
98C                 2:21      3.942     
98C                 2:24      3.694     
98C                 2:27      3.467     
98C                 2:30      3.261     
98C                 2:33      3.074     
98C                 2:36      2.903     
98C                 2:39      2.749     
98C                 2:42      2.609     
98C                 2:45      2.482     
98C                 2:48      2.367     
98C                 2:51      2.264     
98C                 2:54      2.170     
98C                 2:57      2.086     
98C                 3:00      2.009     
98I                 0:00      0.450     
98I                 0:03      0.729     
98I                 0:06      1.419     
98I                 0:09      2.340     
98I                 0:12      3.362     
98I                 0:15      4.395     
98I                 0:18      5.374     
98I                 0:21      6.260     
98I                 0:24      7.029     
98I                 0:27      7.668     
98I                 0:30      8.175     
98I                 0:33      8.553     
98I                 0:36      8.809     
98I                 0:39      8.954     
98I                 0:42      9.000     
98I                 0:45      8.958     
98I                 0:48      8.842     
98I                 0:51      8.663     
98I                 0:54      8.432     
98I                 0:57      8.159     
98I                 1:00      7.855     
98I                 1:03      7.527     
98I                 1:06      7.183     
98I                 1:09      6.830     
98I                 1:12      6.472     
98I                 1:15      6.114     
98I                 1:18      5.761     
98I                 1:21      5.415     
98I                 1:24      5.078     
98I                 1:27      4.754     
98I                 1:30      4.443     
98I                 1:33      4.146     
98I                 1:36      3.864     
98I                 1:39      3.597     
98I                 1:42      3.346     
98I                 1:45      3.110     
98I                 1:48      2.890     
98I                 1:51      2.684     
98I                 1:54      2.493     
98I                 1:57      2.315     
98I                 2:00      2.151     
98I                 2:03      1.999     
98I                 2:06      1.859     
98I                 2:09      1.731     
98I                 2:12      1.612     
98I                 2:15      1.504     
98I                 2:18      1.405     
98I                 2:21      1.314     
98I                 2:24      1.231     
98I                 2:27      1.156     
98I                 2:30      1.087     
98I                 2:33      1.025     
98I                 2:36      0.968     
98I                 2:39      0.916     
98I                 2:42      0.870     
98I                 2:45      0.827     
98I                 2:48      0.789     
98I                 2:51      0.755     
98I                 2:54      0.723     
98I                 2:57      0.695     
98I                 3:00      0.670     
99C                 0:00      0.000     
99C                 0:03      0.000     
99C                 0:06      0.000     
99C                 0:09      0.000     
99C                 0:12      0.000     
99C                 0:15      0.000     
99C                 0:18      0.000     
99C                 0:21      0.000     
99C                 0:24      0.000     
99C                 0:27      0.000     
99C                 0:30      0.000     
99C                 0:33      0.000     
99C                 0:36      0.000     
99C                 0:39      0.000     
99C                 0:42      0.000     
99C                 0:45      0.000     
99C                 0:48      0.000     
99C                 0:51      0.000     
99C                 0:54      0.000     
99C                 0:57      0.000     
99C                 1:00      0.000     
99C                 1:03      0.000     
99C                 1:06      0.000     
99C                 1:09      0.000     
99C                 1:12      0.000     
99C                 1:15      0.000     
99C                 1:18      0.000     
99C                 1:21      0.000     
99C                 1:24      0.000     
99C                 1:27      0.000     
99C                 1:30      0.000     
99C                 1:33      0.000     
99C                 1:36      0.000     
99C                 1:39      0.000     
99C                 1:42      0.000     
99C                 1:45      0.000     
99C                 1:48      0.000     
99C                 1:51      0.000     
99C                 1:54      0.000     
99C                 1:57      0.000     
99C                 2:00      0.000     
99C                 2:03      0.000     
99C                 2:06      0.000     
99C                 2:09      0.000     
99C                 2:12      0.000     
99C                 2:15      0.000     
99C                 2:18      0.000     
99C                 2:21      0.000     
99C                 2:24      0.000     
99C                 2:27      0.000     
99C                 2:30      0.000     
99C                 2:33      0.000     
99C                 2:36      0.000     
99C                 2:39      0.000     
99C                 2:42      0.000     
99C                 2:45      0.000     
99C                 2:48      0.000     
99C                 2:51      0.000     
99C                 2:54      0.000     
99C                 2:57      0.000     
99C                 3:00      0.000     
99I                 0:00      1.300     
99I                 0:03      2.107     
99I                 0:06      4.099     
99I                 0:09      6.759     
99I                 0:12      9.714     
99I                 0:15      12.696    
99I                 0:18      15.526    
99I                 0:21      18.085    
99I                 0:24      20.305    
99I                 0:27      22.151    
99I                 0:30      23.616    
99I                 0:33      24.707    
99I                 0:36      25.448    
99I                 0:39      25.868    
99I                 0:42      26.000    
99I                 0:45      25.880    
99I                 0:48      25.544    
99I                 0:51      25.025    
99I                 0:54      24.358    
99I                 0:57      23.571    
99I                 1:00      22.692    
99I                 1:03      21.745    
99I                 1:06      20.751    
99I                 1:09      19.730    
99I                 1:12      18.696    
99I                 1:15      17.663    
99I                 1:18      16.642    
99I                 1:21      15.642    
99I                 1:24      14.671    
99I                 1:27      13.734    
99I                 1:30      12.835    
99I                 1:33      11.977    
99I                 1:36      11.162    
99I                 1:39      10.392    
99I                 1:42      9.667     
99I                 1:45      8.986     
99I                 1:48      8.349     
99I                 1:51      7.755     
99I                 1:54      7.202     
99I                 1:57      6.689     
99I                 2:00      6.214     
99I                 2:03      5.776     
99I                 2:06      5.372     
99I                 2:09      5.000     
99I                 2:12      4.658     
99I                 2:15      4.345     
99I                 2:18      4.058     
99I                 2:21      3.796     
99I                 2:24      3.557     
99I                 2:27      3.339     
99I                 2:30      3.140     
99I                 2:33      2.960     
99I                 2:36      2.796     
99I                 2:39      2.647     
99I                 2:42      2.512     
99I                 2:45      2.390     
99I                 2:48      2.280     
99I                 2:51      2.180     
99I                 2:54      2.090     
99I                 2:57      2.008     
99I                 3:00      1.935     
100C                0:00      0.975     
100C                0:03      1.580     
100C                0:06      3.074     
100C                0:09      5.070     
100C                0:12      7.285     
100C                0:15      9.522     
100C                0:18      11.644    
100C                0:21      13.564    
100C                0:24      15.229    
100C                0:27      16.614    
100C                0:30      17.712    
100C                0:33      18.531    
100C                0:36      19.086    
100C                0:39      19.401    
100C                0:42      19.500    
100C                0:45      19.410    
100C                0:48      19.158    
100C                0:51      18.769    
100C                0:54      18.268    
100C                0:57      17.678    
100C                1:00      17.019    
100C                1:03      16.309    
100C                1:06      15.564    
100C                1:09      14.797    
100C                1:12      14.022    
100C                1:15      13.247    
100C                1:18      12.482    
100C                1:21      11.732    
100C                1:24      11.003    
100C                1:27      10.300    
100C                1:30      9.626     
100C                1:33      8.983     
100C                1:36      8.372     
100C                1:39      7.794     
100C                1:42      7.250     
100C                1:45      6.739     
100C                1:48      6.262     
100C                1:51      5.816     
100C                1:54      5.401     
100C                1:57      5.017     
100C                2:00      4.661     
100C                2:03      4.332     
100C                2:06      4.029     
100C                2:09      3.750     
100C                2:12      3.494     
100C                2:15      3.259     
100C                2:18      3.044     
100C                2:21      2.847     
100C                2:24      2.668     
100C                2:27      2.504     
100C                2:30      2.355     
100C                2:33      2.220     
100C                2:36      2.097     
100C                2:39      1.985     
100C                2:42      1.884     
100C                2:45      1.793     
100C                2:48      1.710     
100C                2:51      1.635     
100C                2:54      1.567     
100C                2:57      1.506     
100C                3:00      1.451     
100I                0:00      0.325     
100I                0:03      0.527     
100I                0:06      1.025     
100I                0:09      1.690     
100I                0:12      2.428     
100I                0:15      3.174     
100I                0:18      3.881     
100I                0:21      4.521     
100I                0:24      5.076     
100I                0:27      5.538     
100I                0:30      5.904     
100I                0:33      6.177     
100I                0:36      6.362     
100I                0:39      6.467     
100I                0:42      6.500     
100I                0:45      6.470     
100I                0:48      6.386     
100I                0:51      6.256     
100I                0:54      6.089     
100I                0:57      5.893     
100I                1:00      5.673     
100I                1:03      5.436     
100I                1:06      5.188     
100I                1:09      4.932     
100I                1:12      4.674     
100I                1:15      4.416     
100I                1:18      4.161     
100I                1:21      3.911     
100I                1:24      3.668     
100I                1:27      3.433     
100I                1:30      3.209     
100I                1:33      2.994     
100I                1:36      2.791     
100I                1:39      2.598     
100I                1:42      2.417     
100I                1:45      2.246     
100I                1:48      2.087     
100I                1:51      1.939     
100I                1:54      1.800     
100I                1:57      1.672     
100I                2:00      1.554     
100I                2:03      1.444     
100I                2:06      1.343     
100I                2:09      1.250     
100I                2:12      1.165     
100I                2:15      1.086     
100I                2:18      1.015     
100I                2:21      0.949     
100I                2:24      0.889     
100I                2:27      0.835     
100I                2:30      0.785     
100I                2:33      0.740     
100I                2:36      0.699     
100I                2:39      0.662     
100I                2:42      0.628     
100I                2:45      0.598     
100I                2:48      0.570     
100I                2:51      0.545     
100I                2:54      0.522     
100I                2:57      0.502     
100I                3:00      0.484     
101C                0:00      0.800     
101C                0:03      1.297     
101C                0:06      2.522     
101C                0:09      4.160     
101C                0:12      5.978     
101C                0:15      7.813     
101C                0:18      9.554     
101C                0:21      11.129    
101C                0:24      12.496    
101C                0:27      13.632    
101C                0:30      14.533    
101C                0:33      15.205    
101C                0:36      15.661    
101C                0:39      15.919    
101C                0:42      16.000    
101C                0:45      15.926    
101C                0:48      15.719    
101C                0:51      15.400    
101C                0:54      14.989    
101C                0:57      14.505    
101C                1:00      13.964    
101C                1:03      13.381    
101C                1:06      12.770    
101C                1:09      12.141    
101C                1:12      11.505    
101C                1:15      10.869    
101C                1:18      10.241    
101C                1:21      9.626     
101C                1:24      9.028     
101C                1:27      8.452     
101C                1:30      7.898     
101C                1:33      7.370     
101C                1:36      6.869     
101C                1:39      6.395     
101C                1:42      5.949     
101C                1:45      5.530     
101C                1:48      5.138     
101C                1:51      4.772     
101C                1:54      4.432     
101C                1:57      4.116     
101C                2:00      3.824     
101C                2:03      3.554     
101C                2:06      3.306     
101C                2:09      3.077     
101C                2:12      2.866     
101C                2:15      2.674     
101C                2:18      2.497     
101C                2:21      2.336     
101C                2:24      2.189     
101C                2:27      2.055     
101C                2:30      1.932     
101C                2:33      1.821     
101C                2:36      1.720     
101C                2:39      1.629     
101C                2:42      1.546     
101C                2:45      1.471     
101C                2:48      1.403     
101C                2:51      1.341     
101C                2:54      1.286     
101C                2:57      1.236     
101C                3:00      1.191     
102C                0:00      1.600     
102C                0:03      2.593     
102C                0:06      5.045     
102C                0:09      8.319     
102C                0:12      11.955    
102C                0:15      15.626    
102C                0:18      19.109    
102C                0:21      22.259    
102C                0:24      24.991    
102C                0:27      27.263    
102C                0:30      29.065    
102C                0:33      30.409    
102C                0:36      31.321    
102C                0:39      31.838    
102C                0:42      32.000    
102C                0:45      31.852    
102C                0:48      31.438    
102C                0:51      30.800    
102C                0:54      29.979    
102C                0:57      29.010    
102C                1:00      27.928    
102C                1:03      26.763    
102C                1:06      25.540    
102C                1:09      24.283    
102C                1:12      23.010    
102C                1:15      21.739    
102C                1:18      20.482    
102C                1:21      19.252    
102C                1:24      18.057    
102C                1:27      16.903    
102C                1:30      15.797    
102C                1:33      14.741    
102C                1:36      13.738    
102C                1:39      12.790    
102C                1:42      11.898    
102C                1:45      11.060    
102C                1:48      10.276    
102C                1:51      9.544     
102C                1:54      8.864     
102C                1:57      8.233     
102C                2:00      7.648     
102C                2:03      7.109     
102C                2:06      6.611     
102C                2:09      6.153     
102C                2:12      5.733     
102C                2:15      5.347     
102C                2:18      4.995     
102C                2:21      4.672     
102C                2:24      4.378     
102C                2:27      4.109     
102C                2:30      3.865     
102C                2:33      3.643     
102C                2:36      3.441     
102C                2:39      3.258     
102C                2:42      3.092     
102C                2:45      2.942     
102C                2:48      2.806     
102C                2:51      2.683     
102C                2:54      2.572     
102C                2:57      2.472     
102C                3:00      2.382     
103C                0:00      1.600     
103C                0:03      2.593     
103C                0:06      5.045     
103C                0:09      8.319     
103C                0:12      11.955    
103C                0:15      15.626    
103C                0:18      19.109    
103C                0:21      22.259    
103C                0:24      24.991    
103C                0:27      27.263    
103C                0:30      29.065    
103C                0:33      30.409    
103C                0:36      31.321    
103C                0:39      31.838    
103C                0:42      32.000    
103C                0:45      31.852    
103C                0:48      31.438    
103C                0:51      30.800    
103C                0:54      29.979    
103C                0:57      29.010    
103C                1:00      27.928    
103C                1:03      26.763    
103C                1:06      25.540    
103C                1:09      24.283    
103C                1:12      23.010    
103C                1:15      21.739    
103C                1:18      20.482    
103C                1:21      19.252    
103C                1:24      18.057    
103C                1:27      16.903    
103C                1:30      15.797    
103C                1:33      14.741    
103C                1:36      13.738    
103C                1:39      12.790    
103C                1:42      11.898    
103C                1:45      11.060    
103C                1:48      10.276    
103C                1:51      9.544     
103C                1:54      8.864     
103C                1:57      8.233     
103C                2:00      7.648     
103C                2:03      7.109     
103C                2:06      6.611     
103C                2:09      6.153     
103C                2:12      5.733     
103C                2:15      5.347     
103C                2:18      4.995     
103C                2:21      4.672     
103C                2:24      4.378     
103C                2:27      4.109     
103C                2:30      3.865     
103C                2:33      3.643     
103C                2:36      3.441     
103C                2:39      3.258     
103C                2:42      3.092     
103C                2:45      2.942     
103C                2:48      2.806     
103C                2:51      2.683     
103C                2:54      2.572     
103C                2:57      2.472     
103C                3:00      2.382     
104C                0:00      1.300     
104C                0:03      2.107     
104C                0:06      4.099     
104C                0:09      6.759     
104C                0:12      9.714     
104C                0:15      12.696    
104C                0:18      15.526    
104C                0:21      18.085    
104C                0:24      20.305    
104C                0:27      22.151    
104C                0:30      23.616    
104C                0:33      24.707    
104C                0:36      25.448    
104C                0:39      25.868    
104C                0:42      26.000    
104C                0:45      25.880    
104C                0:48      25.544    
104C                0:51      25.025    
104C                0:54      24.358    
104C                0:57      23.571    
104C                1:00      22.692    
104C                1:03      21.745    
104C                1:06      20.751    
104C                1:09      19.730    
104C                1:12      18.696    
104C                1:15      17.663    
104C                1:18      16.642    
104C                1:21      15.642    
104C                1:24      14.671    
104C                1:27      13.734    
104C                1:30      12.835    
104C                1:33      11.977    
104C                1:36      11.162    
104C                1:39      10.392    
104C                1:42      9.667     
104C                1:45      8.986     
104C                1:48      8.349     
104C                1:51      7.755     
104C                1:54      7.202     
104C                1:57      6.689     
104C                2:00      6.214     
104C                2:03      5.776     
104C                2:06      5.372     
104C                2:09      5.000     
104C                2:12      4.658     
104C                2:15      4.345     
104C                2:18      4.058     
104C                2:21      3.796     
104C                2:24      3.557     
104C                2:27      3.339     
104C                2:30      3.140     
104C                2:33      2.960     
104C                2:36      2.796     
104C                2:39      2.647     
104C                2:42      2.512     
104C                2:45      2.390     
104C                2:48      2.280     
104C                2:51      2.180     
104C                2:54      2.090     
104C                2:57      2.008     
104C                3:00      1.935     
105C                0:00      1.300     
105C                0:03      2.107     
105C                0:06      4.099     
105C                0:09      6.759     
105C                0:12      9.714     
105C                0:15      12.696    
105C                0:18      15.526    
105C                0:21      18.085    
105C                0:24      20.305    
105C                0:27      22.151    
105C                0:30      23.616    
105C                0:33      24.707    
105C                0:36      25.448    
105C                0:39      25.868    
105C                0:42      26.000    
105C                0:45      25.880    
105C                0:48      25.544    
105C                0:51      25.025    
105C                0:54      24.358    
105C                0:57      23.571    
105C                1:00      22.692    
105C                1:03      21.745    
105C                1:06      20.751    
105C                1:09      19.730    
105C                1:12      18.696    
105C                1:15      17.663    
105C                1:18      16.642    
105C                1:21      15.642    
105C                1:24      14.671    
105C                1:27      13.734    
105C                1:30      12.835    
105C                1:33      11.977    
105C                1:36      11.162    
105C                1:39      10.392    
105C                1:42      9.667     
105C                1:45      8.986     
105C                1:48      8.349     
105C                1:51      7.755     
105C                1:54      7.202     
105C                1:57      6.689     
105C                2:00      6.214     
105C                2:03      5.776     
105C                2:06      5.372     
105C                2:09      5.000     
105C                2:12      4.658     
105C                2:15      4.345     
105C                2:18      4.058     
105C                2:21      3.796     
105C                2:24      3.557     
105C                2:27      3.339     
105C                2:30      3.140     
105C                2:33      2.960     
105C                2:36      2.796     
105C                2:39      2.647     
105C                2:42      2.512     
105C                2:45      2.390     
105C                2:48      2.280     
105C                2:51      2.180     
105C                2:54      2.090     
105C                2:57      2.008     
105C                3:00      1.935     
106C                0:00      0.900     
106C                0:03      1.459     
106C                0:06      2.838     
106C                0:09      4.680     
106C                0:12      6.725     
106C                0:15      8.790     
106C                0:18      10.749    
106C                0:21      12.521    
106C                0:24      14.057    
106C                0:27      15.336    
106C                0:30      16.349    
106C                0:33      17.105    
106C                0:36      17.618    
106C                0:39      17.909    
106C                0:42      18.000    
106C                0:45      17.917    
106C                0:48      17.684    
106C                0:51      17.325    
106C                0:54      16.863    
106C                0:57      16.318    
106C                1:00      15.710    
106C                1:03      15.054    
106C                1:06      14.366    
106C                1:09      13.659    
106C                1:12      12.943    
106C                1:15      12.228    
106C                1:18      11.521    
106C                1:21      10.829    
106C                1:24      10.157    
106C                1:27      9.508     
106C                1:30      8.886     
106C                1:33      8.292     
106C                1:36      7.728     
106C                1:39      7.195     
106C                1:42      6.692     
106C                1:45      6.221     
106C                1:48      5.780     
106C                1:51      5.369     
106C                1:54      4.986     
106C                1:57      4.631     
106C                2:00      4.302     
106C                2:03      3.999     
106C                2:06      3.719     
106C                2:09      3.461     
106C                2:12      3.225     
106C                2:15      3.008     
106C                2:18      2.809     
106C                2:21      2.628     
106C                2:24      2.462     
106C                2:27      2.311     
106C                2:30      2.174     
106C                2:33      2.049     
106C                2:36      1.935     
106C                2:39      1.833     
106C                2:42      1.739     
106C                2:45      1.655     
106C                2:48      1.578     
106C                2:51      1.509     
106C                2:54      1.447     
106C                2:57      1.390     
106C                3:00      1.340     
107C                0:00      1.300     
107C                0:03      2.107     
107C                0:06      4.099     
107C                0:09      6.759     
107C                0:12      9.714     
107C                0:15      12.696    
107C                0:18      15.526    
107C                0:21      18.085    
107C                0:24      20.305    
107C                0:27      22.151    
107C                0:30      23.616    
107C                0:33      24.707    
107C                0:36      25.448    
107C                0:39      25.868    
107C                0:42      26.000    
107C                0:45      25.880    
107C                0:48      25.544    
107C                0:51      25.025    
107C                0:54      24.358    
107C                0:57      23.571    
107C                1:00      22.692    
107C                1:03      21.745    
107C                1:06      20.751    
107C                1:09      19.730    
107C                1:12      18.696    
107C                1:15      17.663    
107C                1:18      16.642    
107C                1:21      15.642    
107C                1:24      14.671    
107C                1:27      13.734    
107C                1:30      12.835    
107C                1:33      11.977    
107C                1:36      11.162    
107C                1:39      10.392    
107C                1:42      9.667     
107C                1:45      8.986     
107C                1:48      8.349     
107C                1:51      7.755     
107C                1:54      7.202     
107C                1:57      6.689     
107C                2:00      6.214     
107C                2:03      5.776     
107C                2:06      5.372     
107C                2:09      5.000     
107C                2:12      4.658     
107C                2:15      4.345     
107C                2:18      4.058     
107C                2:21      3.796     
107C                2:24      3.557     
107C                2:27      3.339     
107C                2:30      3.140     
107C                2:33      2.960     
107C                2:36      2.796     
107C                2:39      2.647     
107C                2:42      2.512     
107C                2:45      2.390     
107C                2:48      2.280     
107C                2:51      2.180     
107C                2:54      2.090     
107C                2:57      2.008     
107C                3:00      1.935     
108C                0:00      1.700     
108C                0:03      2.756     
108C                0:06      5.360     
108C                0:09      8.839     
108C                0:12      12.702    
108C                0:15      16.603    
108C                0:18      20.303    
108C                0:21      23.650    
108C                0:24      26.553    
108C                0:27      28.967    
108C                0:30      30.882    
108C                0:33      32.310    
108C                0:36      33.279    
108C                0:39      33.827    
108C                0:42      34.000    
108C                0:45      33.843    
108C                0:48      33.403    
108C                0:51      32.725    
108C                0:54      31.852    
108C                0:57      30.823    
108C                1:00      29.674    
108C                1:03      28.436    
108C                1:06      27.136    
108C                1:09      25.800    
108C                1:12      24.448    
108C                1:15      23.098    
108C                1:18      21.763    
108C                1:21      20.455    
108C                1:24      19.185    
108C                1:27      17.960    
108C                1:30      16.784    
108C                1:33      15.662    
108C                1:36      14.597    
108C                1:39      13.590    
108C                1:42      12.641    
108C                1:45      11.751    
108C                1:48      10.918    
108C                1:51      10.141    
108C                1:54      9.418     
108C                1:57      8.747     
108C                2:00      8.126     
108C                2:03      7.553     
108C                2:06      7.024     
108C                2:09      6.538     
108C                2:12      6.091     
108C                2:15      5.682     
108C                2:18      5.307     
108C                2:21      4.964     
108C                2:24      4.651     
108C                2:27      4.366     
108C                2:30      4.106     
108C                2:33      3.870     
108C                2:36      3.656     
108C                2:39      3.461     
108C                2:42      3.285     
108C                2:45      3.125     
108C                2:48      2.981     
108C                2:51      2.851     
108C                2:54      2.733     
108C                2:57      2.626     
108C                3:00      2.530     

[REPORT]
;;Reporting Options
SUBCATCHMENTS ALL
NODES ALL
LINKS ALL

[TAGS]

[MAP]
DIMENSIONS 637.440 6553.980 2263.120 7952.490
Units      Meters

[COORDINATES]
;;Node    X-Coord   Y-Coord   
;;------- -------------- --------------
1C        2145.390       7352.390       
2C        1982.510       7441.010       
2I        1982.510       7441.010       
3C        1784.490       7532.930       
3I        1784.490       7532.930       
4C        1632.280       7617.990       
4I        1632.280       7617.990       
5C        1452.890       7704.760       
6C        1317.860       7779.490       
7C        2233.120       7204.600       
8C        2097.160       7271.090       
9C        1932.990       7372.470       
10C       1835.940       7416.570       
11C       1747.320       7462.520       
12C       1650.500       7499.210       
13C       1588.000       7531.500       
13I       1588.000       7531.500       
14C       1524.170       7564.570       
15C       1460.840       7597.470       
16C       1397.460       7630.550       
16I       1397.460       7630.550       
17C       1333.260       7661.290       
18C       1202.870       7770.980       
19I       2204.200       7149.600       
19Ib      2204.200       7149.600       
20C       2065.540       7218.980       
20I       2065.540       7218.980       
21C       1996.740       7259.190       
22C       1880.410       7313.670       
22I       1880.410       7313.670       
23C       1803.790       7353.820       
23I       1803.790       7353.820       
24C       1715.030       7400.080       
25C       1144.170       7710.550       
26C       2157.490       7087.170       
27C       2093.600       7119.760       
28C       2029.410       7153.100       
28I       2029.410       7153.100       
29C       1963.140       7187.670       
30C       1905.840       7224.420       
31C       1831.540       7256.250       
31I       1831.540       7256.250       
32C       1765.150       7289.850       
33C       1681.290       7333.850       
34I       1600.040       7388.100       
34Ib      1600.040       7388.100       
35C       1544.460       7448.030       
36C       1481.470       7481.980       
37I       1419.460       7517.890       
37Ib      1419.460       7517.890       
38C       1356.120       7550.700       
39C       1279.690       7558.360       
40C       1197.640       7600.630       
40I       1197.640       7600.630       
41C       1114.680       7643.680       
42C       1917.320       7098.980       
43C       1735.700       7224.200       
43I       1735.700       7224.200       
44C       1645.680       7265.070       
45C       1548.160       7315.990       
46C       1491.400       7345.580       
46I       1491.400       7345.580       
47C       1427.550       7377.920       
47I       1427.550       7377.920       
48C       1364.270       7411.310       
49C       1300.920       7444.200       
50C       1237.380       7477.060       
50I       1237.380       7477.060       
51C       1155.710       7519.680       
52C       1072.140       7561.270       
53C       1004.440       7596.190       
54I       2090.900       6933.350       
54Ib      2090.900       6933.350       
55C       2013.310       6965.140       
56C       1954.280       7002.500       
56I       1954.280       7002.500       
57C       1882.860       7032.930       
57I       1882.860       7032.930       
58C       1826.730       7064.100       
58I       1826.730       7064.100       
59C       1746.820       7099.010       
59I       1746.820       7099.010       
60C       1686.220       7129.440       
60I       1686.220       7129.440       
61C       1599.010       7175.990       
62C       1508.100       7223.400       
62I       1508.100       7223.400       
63C       1456.740       7260.950       
63I       1456.740       7260.950       
64C       1381.430       7289.200       
64I       1381.430       7289.200       
65C       1318.170       7322.350       
65I       1318.170       7322.350       
66C       1254.730       7355.180       
66I       1254.730       7355.180       
67C       1191.380       7388.100       
68C       1109.340       7429.940       
69C       962.530        7514.740       
70C       2056.960       6866.810       
71C       2002.760       6889.270       
71I       2002.760       6889.270       
72C       1920.350       6933.780       
72I       1920.350       6933.780       
73C       1832.900       6975.880       
73I       1832.900       6975.880       
74C       1728.080       7031.720       
75C       1649.080       7068.520       
75I       1649.080       7068.520       
76C       1559.390       7112.630       
76I       1559.390       7112.630       
77C       1471.370       7158.010       
77I       1471.370       7158.010       
78C       1393.920       7198.280       
79C       1305.240       7244.350       
80C       1230.890       7282.920       
81C       1155.260       7322.230       
81I       1155.260       7322.230       
81Ib      1155.260       7322.230       
82C       1076.770       7368.030       
82I       1076.770       7368.030       
82Ib      1076.770       7368.030       
83C       992.300        7407.290       
83I       992.300        7407.290       
84C       913.300        7446.360       
84I       913.300        7446.360       
85C       826.810        7493.270       
86C       1958.450       6815.650       
86I       1958.450       6815.650       
87C       1785.750       6898.330       
87I       1785.750       6898.330       
88C       1604.820       6992.610       
89C       1530.580       7035.670       
90C       1434.470       7086.980       
90I       1434.470       7086.980       
91C       1268.270       7173.470       
91I       1268.270       7173.470       
91Ib      1268.270       7173.470       
92C       1116.000       7247.090       
93C       1035.110       7288.280       
94C       955.690        7336.900       
94I       955.690        7336.900       
95C       788.200        7419.130       
96I       1910.250       6726.980       
96Ib      1910.250       6726.980       
97C       1744.420       6812.620       
97I       1744.420       6812.620       
98C       1569.160       6903.750       
98I       1569.160       6903.750       
99C       1475.040       6952.680       
99I       1475.040       6952.680       
100C      1391.340       6997.480       
100I      1391.340       6997.480       
101C      1302.310       7041.850       
102C      1224.800       7082.590       
103C      1071.640       7162.130       
104C      981.540        7207.820       
105C      901.300        7249.350       
106C      831.250        7286.180       
107C      741.360        7334.180       
108C      667.440        7367.240       
109C      584.86         7408.61        

[VERTICES]
;;Link      X-Coord   Y-Coord   
;;--------- --------- ---------
