[TITLE]
;;Project Title/Notes

[OPTIONS]
;;Option             Value
FLOW_UNITS           LPS
INFILTRATION         HORTON
FLOW_ROUTING         DYNWAVE
LINK_OFFSETS         DEPTH
MIN_SLOPE            0
ALLOW_PONDING        NO
SKIP_STEADY_STATE    NO

START_DATE           01/04/2025
START_TIME           00:00:00
REPORT_START_DATE    01/04/2025
REPORT_START_TIME    00:00:05
END_DATE             01/04/2025
END_TIME             3:00:00
SWEEP_START          1/1
SWEEP_END            12/31
DRY_DAYS             0
REPORT_STEP          0:03:00
WET_STEP             0:03:00
DRY_STEP             0:03:00
ROUTING_STEP         0:00:05
RULE_STEP            00:00:00

INERTIAL_DAMPING     PARTIAL
NORMAL_FLOW_LIMITED  BOTH
FORCE_MAIN_EQUATION  D-W
VARIABLE_STEP        0.75
LENGTHENING_STEP     0
MIN_SURFAREA         0
MAX_TRIALS           0
HEAD_TOLERANCE       0
SYS_FLOW_TOL         5
LAT_FLOW_TOL         5
MINIMUM_STEP         0.5
THREADS              1

[EVAPORATION]
;;Data Source    Parameters
;;-------------- ----------------
CONSTANT         0.0
DRY_ONLY         NO

[JUNCTIONS]
;;ID      Elevation MaxDepth  InitDepth SurDepth  Aponded   
;;------- --------- --------- --------- --------- ---------
1C        2560.730  147.274   0         0         0         
2C        2557.600  134.053   0         0         0         
2I        2557.700  133.953   0         0         0         
3C        2556.210  116.245   0         0         0         
3I        2556.210  116.245   0         0         0         
4C        2555.620  103.044   0         0         0         
4I        2556.220  102.444   0         0         0         
5C        2554.670  88.896    0         0         0         
6C        2553.750  80.249    0         0         0         
7C        2567.360  150.574   0         0         0         
8C        2561.910  141.794   0         0         0         
9C        2556.630  130.081   0         0         0         
10C       2555.830  121.131   0         0         0         
11C       2555.100  113.121   0         0         0         
12C       2554.720  104.078   0         0         0         
13C       2554.420  98.494    0         0         0         
13I       2555.420  97.494    0         0         0         
14C       2554.070  92.997    0         0         0         
14I       2554.670  92.397    0         0         0         
15C       2554.280  87.181    0         0         0         
16C       2553.870  82.216    0         0         0         
16I       2554.170  81.916    0         0         0         
17C       2553.630  77.210    0         0         0         
18C       2552.650  70.841    0         0         0         
19I       2568.830  147.012   0         0         0         
19Ib      2568.830  147.012   0         0         0         
20C       2563.650  137.477   0         0         0         
20I       2563.650  137.477   0         0         0         
21C       2558.490  135.336   0         0         0         
22C       2557.400  124.352   0         0         0         
22I       2557.500  124.252   0         0         0         
23C       2556.040  117.826   0         0         0         
23I       2556.140  117.726   0         0         0         
24C       2555.400  109.470   0         0         0         
25C       2552.480  62.931    0         0         0         
26C       2571.800  140.564   0         0         0         
27C       2566.850  138.614   0         0         0         
28C       2564.510  134.037   0         0         0         
28I       2564.510  134.037   0         0         0         
29C       2561.580  129.858   0         0         0         
30C       2559.530  125.696   0         0         0         
31C       2558.010  119.436   0         0         0         
31I       2558.210  119.236   0         0         0         
32C       2556.400  114.075   0         0         0         
33C       2555.670  106.078   0         0         0         
34I       2555.940  97.449    0         0         0         
34Ib      2555.940  97.449    0         0         0         
35C       2554.810  93.081    0         0         0         
36C       2553.690  88.121    0         0         0         
37I       2554.640  81.382    0         0         0         
37Ib      2554.640  81.382    0         0         0         
38C       2553.850  76.424    0         0         0         
39C       2553.190  69.738    0         0         0         
40C       2552.990  63.076    0         0         0         
40I       2553.390  62.676    0         0         0         
41C       2552.390  57.423    0         0         0         
42C       2563.130  125.516   0         0         0         
43C       2557.770  110.632   0         0         0         
43I       2557.770  110.632   0         0         0         
44C       2555.900  102.999   0         0         0         
45C       2555.660  92.964    0         0         0         
46C       2555.250  87.473    0         0         0         
46I       2555.250  87.473    0         0         0         
47C       2553.430  82.745    0         0         0         
48C       2553.170  76.621    0         0         0         
49C       2552.960  70.584    0         0         0         
50C       2552.760  64.700    0         0         0         
50I       2553.560  63.900    0         0         0         
51C       2552.330  57.676    0         0         0         
52C       2551.850  51.063    0         0         0         
53C       2552.040  45.770    0         0         0         
54I       2574.690  135.085   0         0         0         
54Ib      2574.690  135.085   0         0         0         
55C       2568.510  132.911   0         0         0         
56C       2565.780  128.907   0         0         0         
56I       2565.780  128.907   0         0         0         
57C       2564.290  122.687   0         0         0         
57I       2564.290  122.687   0         0         0         
58C       2563.430  117.297   0         0         0         
58I       2563.430  117.297   0         0         0         
59C       2561.040  111.060   0         0         0         
59I       2561.040  111.060   0         0         0         
60C       2559.300  106.169   0         0         0         
60I       2559.300  106.169   0         0         0         
61C       2556.740  99.159    0         0         0         
62C       2556.500  89.513    0         0         0         
62I       2556.500  89.513    0         0         0         
63C       2555.810  84.470    0         0         0         
63I       2555.810  84.470    0         0         0         
64C       2555.090  77.307    0         0         0         
64I       2555.090  77.307    0         0         0         
65C       2554.370  71.317    0         0         0         
65I       2554.370  71.317    0         0         0         
66C       2553.740  65.310    0         0         0         
66I       2553.840  65.210    0         0         0         
67C       2553.480  59.057    0         0         0         
68C       2553.450  50.891    0         0         0         
69C       2552.360  38.720    0         0         0         
70C       2574.390  134.324   0         0         0         
71C       2568.950  133.902   0         0         0         
71I       2568.950  133.902   0         0         0         
72C       2566.500  127.089   0         0         0         
72I       2566.500  127.089   0         0         0         
73C       2564.640  119.303   0         0         0         
73I       2564.740  119.203   0         0         0         
74C       2562.290  109.934   0         0         0         
75C       2559.740  103.834   0         0         0         
75I       2559.840  103.734   0         0         0         
76C       2557.540  96.159    0         0         0         
76I       2557.840  95.859    0         0         0         
77C       2556.790  87.185    0         0         0         
77I       2556.790  87.185    0         0         0         
78C       2555.870  79.575    0         0         0         
79C       2554.420  71.317    0         0         0         
80C       2554.030  63.634    0         0         0         
81C       2553.810  55.730    0         0         0         
81I       2554.110  55.430    0         0         0         
81Ib      2554.110  55.430    0         0         0         
82C       2553.760  47.448    0         0         0         
82I       2553.760  47.448    0         0         0         
82Ib      2553.760  47.448    0         0         0         
83C       2550.990  41.604    0         0         0         
83I       2552.890  39.704    0         0         0         
84C       2552.530  32.380    0         0         0         
84I       2552.930  31.980    0         0         0         
85C       2552.160  25.323    0         0         0         
86C       2571.830  129.631   0         0         0         
86I       2571.830  129.631   0         0         0         
87C       2564.950  117.381   0         0         0         
87I       2564.950  117.381   0         0         0         
88C       2560.660  101.343   0         0         0         
89C       2558.660  94.850    0         0         0         
90C       2557.510  85.185    0         0         0         
90I       2557.510  85.185    0         0         0         
91C       2555.220  68.903    0         0         0         
91I       2555.220  68.903    0         0         0         
91Ib      2555.220  68.903    0         0         0         
92C       2553.770  53.596    0         0         0         
93C       2553.310  45.145    0         0         0         
94C       2550.510  39.110    0         0         0         
94I       2552.710  36.910    0         0         0         
95C       2551.650  20.561    0         0         0         
96I       2573.980  126.910   0         0         0         
96Ib      2573.980  126.910   0         0         0         
97C       2568.060  114.166   0         0         0         
97I       2568.060  114.166   0         0         0         
98C       2563.290  99.182    0         0         0         
98I       2563.290  99.182    0         0         0         
99C       2559.580  92.285    0         0         0         
99I       2559.580  92.285    0         0         0         
100C      2558.800  83.573    0         0         0         
100I      2558.800  83.573    0         0         0         
101C      2556.800  75.626    0         0         0         
102C      2554.130  69.540    0         0         0         
103C      2553.110  53.303    0         0         0         
104C      2552.630  43.680    0         0         0         
105C      2549.950  37.326    0         0         0         
106C      2549.420  29.943    0         0         0         
107C      2548.730  20.450    0         0         0         
108C      2548.060  13.026    0         0         0         

[OUTFALLS]
;;Name    Elevation      Type      Stage Data     Gated     Route To  
;;------- -------------- --------- -------------- --------- ---------
109C      2547.650       FREE                     NO        

[CONDUITS]
;;Name    FromNode  ToNode    Length    Roughness InOffset  OutOffset InitFlow  MaxFlow   
;;------- --------- --------- --------- --------- --------- --------- --------- ---------
T1        38C       49C       119.956   0.0087    0.000     0.500     0.00000   0         
T2        97C       87C       95.205    0.0087    0.000     0.000     0.00000   0         
T3        85C       95C       83.593    0.0087    0.000     0.000     0.00000   0         
T4        25C       41C       73.084    0.0087    0.000     0.000     0.00000   0         
T5        84I       69C       84.260    0.0087    0.000     0.000     0.00000   0         
T6        31I       22C       75.404    0.0087    0.000     0.100     0.00000   0         
T7        29C       30C       68.103    0.0087    0.000     0.000     0.00000   0         
T8        37I       15C       89.696    0.0087    0.000     0.000     0.00000   0         
T9        54I       70C       74.697    0.0087    0.000     0.000     0.00000   0         
T10       32C       33C       94.704    0.0087    0.000     0.100     0.00000   0         
T11       65C       66C       71.434    0.0087    0.000     0.000     0.00000   0         
T12       8C        1C        94.537    0.0087    0.000     0.000     0.00000   0         
T13       21C       22C       128.460   0.0087    0.000     0.000     0.00000   0         
T14       37Ib      48C       120.022   0.0087    0.000     1.100     0.00000   0         
T15       48C       49C       71.379    0.0087    0.000     0.000     0.00000   0         
T16       63I       46C       91.454    0.0087    0.000     0.000     0.00000   0         
T17       40C       51C       91.165    0.0087    0.000     0.400     0.00000   0         
T18       14I       15C       71.367    0.0087    0.000     0.100     0.00000   0         
T19       82I       93C       89.977    0.0087    0.000     0.000     0.00000   0         
T20       22C       23C       86.513    0.0087    0.000     0.000     0.00000   0         
T21       14C       36C       92.976    0.0087    0.000     0.000     0.00000   0         
T22       56I       28C       168.305   0.0087    0.000     0.000     0.00000   0         
T23       55C       27C       174.231   0.0087    0.000     0.000     0.00000   0         
T24       69C       53C       91.601    0.0087    0.000     0.000     0.00000   0         
T25       18C       25C       84.247    0.0087    0.000     0.000     0.00000   0         
T26       66C       67C       71.393    0.0087    0.000     0.000     0.00000   0         
T27       24C       11C       70.296    0.0087    0.000     0.000     0.00000   0         
T28       22I       9C        78.884    0.0087    0.000     0.100     0.00000   0         
T29       78C       79C       99.943    0.0087    0.000     0.000     0.00000   0         
T30       73I       57C       75.835    0.0087    0.000     0.000     0.00000   0         
T31       31C       32C       74.424    0.0087    0.000     0.000     0.00000   0         
T32       75I       60C       71.351    0.0087    0.000     0.000     0.00000   0         
T33       59C       60C       67.833    0.0087    0.000     0.000     0.00000   0         
T34       91I       92C       169.137   0.0087    0.000     0.300     0.00000   0         
T35       28I       20C       75.142    0.0087    0.000     0.000     0.00000   0         
T36       81C       67C       75.124    0.0087    0.000     0.000     0.00000   0         
T37       3C        11C       79.621    0.0087    0.000     0.500     0.00000   0         
T38       99I       100C      94.939    0.0087    0.000     0.000     0.00000   0         
T39       62I       45C       100.887   0.0087    0.000     0.100     0.00000   0         
T40       35C       36C       71.558    0.0087    0.000     0.700     0.00000   0         
T41       43C       44C       98.876    0.0087    0.000     0.300     0.00000   0         
T42       72I       56C       76.643    0.0087    0.000     0.000     0.00000   0         
T43       65I       48C       100.196   0.0087    0.000     0.800     0.00000   0         
T44       1C        2C        185.454   0.0087    0.000     0.000     0.00000   0         
T45       33C       24C       74.329    0.0087    0.000     0.000     0.00000   0         
T46       77C       78C       87.298    0.0087    0.000     0.000     0.00000   0         
T47       23C       24C       100.093   0.0087    0.000     0.100     0.00000   0         
T48       96I       86C       100.947   0.0087    0.000     0.000     0.00000   0         
T49       72C       73C       97.072    0.0087    0.000     0.100     0.00000   0         
T50       46I       35C       115.376   0.0087    0.000     0.000     0.00000   0         
T51       76C       61C       74.732    0.0087    0.000     0.000     0.00000   0         
T52       4C        13C       97.166    0.0087    0.000     0.900     0.00000   0         
T53       62C       63C       63.626    0.0087    0.000     0.000     0.00000   0         
T54       96Ib      97C       186.732   0.0087    0.000     0.000     0.00000   0         
T55       107C      108C      80.979    0.0087    0.000     0.000     0.00000   0         
T56       17C       39C       116.036   0.0087    0.000     0.200     0.00000   0         
T57       58I       30C       178.814   0.0087    0.000     0.200     0.00000   0         
T58       98C       99C       106.144   0.0087    0.000     0.000     0.00000   0         
T59       7C        8C        151.446   0.0087    0.000     0.000     0.00000   0         
T60       42C       29C       99.839    0.0087    0.000     0.000     0.00000   0         
T61       51C       52C       93.348    0.0087    0.000     0.000     0.00000   0         
T62       44C       33C       77.452    0.0087    0.000     0.000     0.00000   0         
T63       47C       48C       71.549    0.0087    0.000     0.000     0.00000   0         
T64       81I       92C       84.779    0.0087    0.000     0.000     0.00000   0         
T65       71C       72C       93.694    0.0087    0.000     0.000     0.00000   0         
T66       13I       35C       94.145    0.0087    0.000     0.100     0.00000   0         
T67       15C       16C       71.495    0.0087    0.000     0.000     0.00000   0         
T68       2C        9C        84.563    0.0087    0.000     0.000     0.00000   0         
T69       71I       55C       76.601    0.0087    0.000     0.000     0.00000   0         
T70       12C       13C       70.349    0.0087    0.000     0.000     0.00000   0         
T71       10C       11C       99.825    0.0087    0.000     0.400     0.00000   0         
T72       20C       21C       79.856    0.0087    0.000     0.000     0.00000   0         
T73       86I       71C       85.974    0.0087    0.000     0.000     0.00000   0         
T74       34I       45C       88.834    0.0087    0.000     0.000     0.00000   0         
T75       13C       14C       71.889    0.0087    0.000     0.000     0.00000   0         
T76       36C       47C       117.200   0.0087    0.000     0.000     0.00000   0         
T77       16C       17C       71.180    0.0087    0.000     0.000     0.00000   0         
T78       82Ib      68C       69.955    0.0087    0.000     0.000     0.00000   0         
T79       108C      109C      92.364    0.0087    0.000     0.000     0.00000   0         
T80       5C        6C        154.332   0.0087    0.000     0.000     0.00000   0         
T81       104C      105C      90.372    0.0087    0.000     0.700     0.00000   0         
T82       94C       105C      103.071   0.0087    0.000     0.000     0.00000   0         
T83       91C       102C      100.747   0.0087    0.000     0.000     0.00000   0         
T84       59I       31C       178.633   0.0087    0.000     0.200     0.00000   0         
T85       68C       51C       101.013   0.0087    0.000     0.600     0.00000   0         
T86       87C       88C       204.066   0.0087    0.000     0.000     0.00000   0         
T87       50I       39C       91.651    0.0087    0.000     0.000     0.00000   0         
T88       52C       83C       173.450   0.0087    0.000     0.000     0.00000   0         
T89       75C       76C       99.974    0.0087    0.000     0.000     0.00000   0         
T90       100C      101C      99.494    0.0087    0.000     0.000     0.00000   0         
T91       73C       74C       118.789   0.0087    0.000     0.000     0.00000   0         
T92       102C      103C      172.585   0.0087    0.000     0.000     0.00000   0         
T93       41C       52C       92.742    0.0087    0.000     0.400     0.00000   0         
T94       95C       107C      97.017    0.0087    0.000     1.600     0.00000   0         
T95       11C       12C       103.539   0.0087    0.000     0.000     0.00000   0         
T96       6C        18C       115.310   0.0087    0.000     0.000     0.00000   0         
T97       46C       47C       71.576    0.0087    0.000     1.200     0.00000   0         
T98       54Ib      26C       167.640   0.0087    0.000     0.000     0.00000   0         
T99       49C       50C       71.534    0.0087    0.000     0.000     0.00000   0         
T100      30C       31C       80.845    0.0087    0.000     0.000     0.00000   0         
T101      19I       7C        62.157    0.0087    0.000     0.000     0.00000   0         
T102      105C      106C      79.144    0.0087    0.000     0.000     0.00000   0         
T103      64I       47C       99.992    0.0087    0.000     1.300     0.00000   0         
T104      60I       43C       106.912   0.0087    0.000     0.000     0.00000   0         
T105      97I       98C       197.594   0.0087    0.000     0.000     0.00000   0         
T106      101C      102C      87.605    0.0087    0.000     0.000     0.00000   0         
T107      67C       50C       100.150   0.0087    0.000     0.300     0.00000   0         
T108      58C       59C       87.235    0.0087    0.000     0.000     0.00000   0         
T109      64C       65C       71.423    0.0087    0.000     0.000     0.00000   0         
T110      66I       49C       100.291   0.0087    0.000     0.500     0.00000   0         
T111      90I       77C       80.046    0.0087    0.000     0.000     0.00000   0         
T112      50C       51C       92.123    0.0087    0.000     0.000     0.00000   0         
T113      76I       77C       99.035    0.0087    0.000     0.000     0.00000   0         
T114      77I       62C       75.000    0.0087    0.000     0.000     0.00000   0         
T115      84C       85C       98.393    0.0087    0.000     0.000     0.00000   0         
T116      90C       91C       187.372   0.0087    0.000     0.000     0.00000   0         
T117      83C       94C       79.343    0.0087    0.000     0.000     0.00000   0         
T118      40I       41C       93.465    0.0087    0.000     0.700     0.00000   0         
T119      99C       89C       99.864    0.0087    0.000     0.000     0.00000   0         
T120      94I       95C       186.589   0.0087    0.000     0.200     0.00000   0         
T121      28C       29C       74.802    0.0087    0.000     0.000     0.00000   0         
T122      79C       80C       83.760    0.0087    0.000     0.000     0.00000   0         
T123      2I        3C        218.320   0.0087    0.000     0.000     0.00000   0         
T124      20I       8C        60.978    0.0087    0.000     0.000     0.00000   0         
T125      56C       57C       77.647    0.0087    0.000     0.000     0.00000   0         
T126      60C       61C       98.884    0.0087    0.000     0.200     0.00000   0         
T127      4I        5C        199.279   0.0087    0.000     0.000     0.00000   0         
T128      87I       73C       90.759    0.0087    0.000     0.000     0.00000   0         
T129      63C       64C       80.437    0.0087    0.000     0.000     0.00000   0         
T130      81Ib      82C       90.876    0.0087    0.000     0.000     0.00000   0         
T131      53C       52C       76.176    0.0087    0.000     0.000     0.00000   0         
T132      83I       84C       88.134    0.0087    0.000     0.000     0.00000   0         
T133      88C       75C       87.876    0.0087    0.000     0.000     0.00000   0         
T134      43I       32C       71.961    0.0087    0.000     0.200     0.00000   0         
T135      100I      90C       99.358    0.0087    0.000     0.000     0.00000   0         
T136      93C       104C      96.663    0.0087    0.000     0.300     0.00000   0         
T137      98I       88C       95.782    0.0087    0.000     0.100     0.00000   0         
T138      23I       10C       70.507    0.0087    0.000     0.000     0.00000   0         
T139      70C       71C       58.921    0.0087    0.000     0.000     0.00000   0         
T140      57C       42C       74.508    0.0087    0.000     0.000     0.00000   0         
T141      61C       44C       100.569   0.0087    0.000     0.000     0.00000   0         
T142      89C       76C       82.180    0.0087    0.000     0.300     0.00000   0         
T143      19Ib      20C       155.135   0.0087    0.000     0.000     0.00000   0         
T144      92C       103C      95.844    0.0087    0.000     0.400     0.00000   0         
T145      45C       46C       64.011    0.0087    0.000     0.000     0.00000   0         
T146      3I        4C        174.366   0.0087    0.000     0.000     0.00000   0         
T147      39C       40C       92.298    0.0087    0.000     0.000     0.00000   0         
T148      27C       28C       72.370    0.0087    0.000     0.000     0.00000   0         
T149      34Ib      12C       122.032   0.0087    0.000     0.800     0.00000   0         
T150      91Ib      79C       79.944    0.0087    0.000     0.200     0.00000   0         
T151      86C       87C       191.595   0.0087    0.000     0.000     0.00000   0         
T152      9C        10C       106.602   0.0087    0.000     0.100     0.00000   0         
T153      26C       27C       71.893    0.0087    0.000     0.000     0.00000   0         
T154      82C       83C       93.152    0.0087    0.000     1.900     0.00000   0         
T155      16I       38C       89.917    0.0087    0.000     0.000     0.00000   0         
T156      57I       58C       64.210    0.0087    0.000     0.000     0.00000   0         
T157      106C      107C      101.905   0.0087    0.000     0.000     0.00000   0         
T158      80C       81C       85.236    0.0087    0.000     0.000     0.00000   0         
T159      103C      104C      101.024   0.0087    0.000     0.000     0.00000   0         
T160      74C       75C       87.185    0.0087    0.000     0.100     0.00000   0         

[XSECTIONS]
;;Link    Shape          Geom1     Geom2     Geom3     Geom4     Barrels   Culvert   
;;------- -------------- --------- --------- --------- --------- --------- ---------
T1        CIRCULAR       0.200     0         0         0         1         
T2        CIRCULAR       0.200     0         0         0         1         
T3        CIRCULAR       0.200     0         0         0         1         
T4        CIRCULAR       0.350     0         0         0         1         
T5        CIRCULAR       0.200     0         0         0         1         
T6        CIRCULAR       0.200     0         0         0         1         
T7        CIRCULAR       0.300     0         0         0         1         
T8        CIRCULAR       0.200     0         0         0         1         
T9        CIRCULAR       0.200     0         0         0         1         
T10       CIRCULAR       0.380     0         0         0         1         
T11       CIRCULAR       0.250     0         0         0         1         
T12       CIRCULAR       0.200     0         0         0         1         
T13       CIRCULAR       0.250     0         0         0         1         
T14       CIRCULAR       0.200     0         0         0         1         
T15       CIRCULAR       0.800     0         0         0         1         
T16       CIRCULAR       0.200     0         0         0         1         
T17       CIRCULAR       0.350     0         0         0         1         
T18       CIRCULAR       0.200     0         0         0         1         
T19       CIRCULAR       0.200     0         0         0         1         
T20       CIRCULAR       0.250     0         0         0         1         
T21       CIRCULAR       0.700     0         0         0         1         
T22       CIRCULAR       0.200     0         0         0         1         
T23       CIRCULAR       0.200     0         0         0         1         
T24       CIRCULAR       0.200     0         0         0         1         
T25       CIRCULAR       0.350     0         0         0         1         
T26       CIRCULAR       0.300     0         0         0         1         
T27       CIRCULAR       0.600     0         0         0         1         
T28       CIRCULAR       0.200     0         0         0         1         
T29       CIRCULAR       0.200     0         0         0         1         
T30       CIRCULAR       0.200     0         0         0         1         
T31       CIRCULAR       0.350     0         0         0         1         
T32       CIRCULAR       0.200     0         0         0         1         
T33       CIRCULAR       0.200     0         0         0         1         
T34       CIRCULAR       0.200     0         0         0         1         
T35       CIRCULAR       0.200     0         0         0         1         
T36       CIRCULAR       0.350     0         0         0         1         
T37       CIRCULAR       0.250     0         0         0         1         
T38       CIRCULAR       0.200     0         0         0         1         
T39       CIRCULAR       0.200     0         0         0         1         
T40       CIRCULAR       0.200     0         0         0         1         
T41       CIRCULAR       0.200     0         0         0         1         
T42       CIRCULAR       0.200     0         0         0         1         
T43       CIRCULAR       0.200     0         0         0         1         
T44       CIRCULAR       0.200     0         0         0         1         
T45       CIRCULAR       0.600     0         0         0         1         
T46       CIRCULAR       0.200     0         0         0         1         
T47       CIRCULAR       0.300     0         0         0         1         
T48       CIRCULAR       0.200     0         0         0         1         
T49       CIRCULAR       0.200     0         0         0         1         
T50       CIRCULAR       0.200     0         0         0         1         
T51       CIRCULAR       0.350     0         0         0         1         
T52       CIRCULAR       0.250     0         0         0         1         
T53       CIRCULAR       0.200     0         0         0         1         
T54       CIRCULAR       0.200     0         0         0         1         
T55       CIRCULAR       0.800     0         0         0         1         
T56       CIRCULAR       0.300     0         0         0         1         
T57       CIRCULAR       0.200     0         0         0         1         
T58       CIRCULAR       0.200     0         0         0         1         
T59       CIRCULAR       0.200     0         0         0         1         
T60       CIRCULAR       0.250     0         0         0         1         
T61       CIRCULAR       0.800     0         0         0         1         
T62       CIRCULAR       0.500     0         0         0         1         
T63       CIRCULAR       0.800     0         0         0         1         
T64       CIRCULAR       0.200     0         0         0         1         
T65       CIRCULAR       0.200     0         0         0         1         
T66       CIRCULAR       0.200     0         0         0         1         
T67       CIRCULAR       0.200     0         0         0         1         
T68       CIRCULAR       0.250     0         0         0         1         
T69       CIRCULAR       0.200     0         0         0         1         
T70       CIRCULAR       0.700     0         0         0         1         
T71       CIRCULAR       0.350     0         0         0         1         
T72       CIRCULAR       0.200     0         0         0         1         
T73       CIRCULAR       0.200     0         0         0         1         
T74       CIRCULAR       0.200     0         0         0         1         
T75       CIRCULAR       0.700     0         0         0         1         
T76       CIRCULAR       0.800     0         0         0         1         
T77       CIRCULAR       0.250     0         0         0         1         
T78       CIRCULAR       0.200     0         0         0         1         
T79       CIRCULAR       0.900     0         0         0         1         
T80       CIRCULAR       0.200     0         0         0         1         
T81       CIRCULAR       0.350     0         0         0         1         
T82       CIRCULAR       0.800     0         0         0         1         
T83       CIRCULAR       0.200     0         0         0         1         
T84       CIRCULAR       0.200     0         0         0         1         
T85       CIRCULAR       0.200     0         0         0         1         
T86       CIRCULAR       0.250     0         0         0         1         
T87       CIRCULAR       0.200     0         0         0         1         
T88       CIRCULAR       0.800     0         0         0         1         
T89       CIRCULAR       0.300     0         0         0         1         
T90       CIRCULAR       0.200     0         0         0         1         
T91       CIRCULAR       0.200     0         0         0         1         
T92       CIRCULAR       0.300     0         0         0         1         
T93       CIRCULAR       0.380     0         0         0         1         
T94       CIRCULAR       0.250     0         0         0         1         
T95       CIRCULAR       0.700     0         0         0         1         
T96       CIRCULAR       0.200     0         0         0         1         
T97       CIRCULAR       0.250     0         0         0         1         
T98       CIRCULAR       0.200     0         0         0         1         
T99       CIRCULAR       0.800     0         0         0         1         
T100      CIRCULAR       0.300     0         0         0         1         
T101      CIRCULAR       0.200     0         0         0         1         
T102      CIRCULAR       0.800     0         0         0         1         
T103      CIRCULAR       0.200     0         0         0         1         
T104      CIRCULAR       0.200     0         0         0         1         
T105      CIRCULAR       0.200     0         0         0         1         
T106      CIRCULAR       0.200     0         0         0         1         
T107      CIRCULAR       0.380     0         0         0         1         
T108      CIRCULAR       0.200     0         0         0         1         
T109      CIRCULAR       0.200     0         0         0         1         
T110      CIRCULAR       0.200     0         0         0         1         
T111      CIRCULAR       0.200     0         0         0         1         
T112      CIRCULAR       0.800     0         0         0         1         
T113      CIRCULAR       0.200     0         0         0         1         
T114      CIRCULAR       0.200     0         0         0         1         
T115      CIRCULAR       0.200     0         0         0         1         
T116      CIRCULAR       0.200     0         0         0         1         
T117      CIRCULAR       0.800     0         0         0         1         
T118      CIRCULAR       0.200     0         0         0         1         
T119      CIRCULAR       0.200     0         0         0         1         
T120      CIRCULAR       0.200     0         0         0         1         
T121      CIRCULAR       0.200     0         0         0         1         
T122      CIRCULAR       0.300     0         0         0         1         
T123      CIRCULAR       0.200     0         0         0         1         
T124      CIRCULAR       0.200     0         0         0         1         
T125      CIRCULAR       0.200     0         0         0         1         
T126      CIRCULAR       0.200     0         0         0         1         
T127      CIRCULAR       0.200     0         0         0         1         
T128      CIRCULAR       0.200     0         0         0         1         
T129      CIRCULAR       0.200     0         0         0         1         
T130      CIRCULAR       0.200     0         0         0         1         
T131      CIRCULAR       0.250     0         0         0         1         
T132      CIRCULAR       0.200     0         0         0         1         
T133      CIRCULAR       0.300     0         0         0         1         
T134      CIRCULAR       0.200     0         0         0         1         
T135      CIRCULAR       0.200     0         0         0         1         
T136      CIRCULAR       0.200     0         0         0         1         
T137      CIRCULAR       0.200     0         0         0         1         
T138      CIRCULAR       0.200     0         0         0         1         
T139      CIRCULAR       0.200     0         0         0         1         
T140      CIRCULAR       0.200     0         0         0         1         
T141      CIRCULAR       0.400     0         0         0         1         
T142      CIRCULAR       0.200     0         0         0         1         
T143      CIRCULAR       0.200     0         0         0         1         
T144      CIRCULAR       0.250     0         0         0         1         
T145      CIRCULAR       0.200     0         0         0         1         
T146      CIRCULAR       0.200     0         0         0         1         
T147      CIRCULAR       0.350     0         0         0         1         
T148      CIRCULAR       0.200     0         0         0         1         
T149      CIRCULAR       0.200     0         0         0         1         
T150      CIRCULAR       0.200     0         0         0         1         
T151      CIRCULAR       0.200     0         0         0         1         
T152      CIRCULAR       0.300     0         0         0         1         
T153      CIRCULAR       0.200     0         0         0         1         
T154      CIRCULAR       0.200     0         0         0         1         
T155      CIRCULAR       0.200     0         0         0         1         
T156      CIRCULAR       0.200     0         0         0         1         
T157      CIRCULAR       0.800     0         0         0         1         
T158      CIRCULAR       0.350     0         0         0         1         
T159      CIRCULAR       0.350     0         0         0         1         
T160      CIRCULAR       0.200     0         0         0         1         

[INFLOWS]
;;Node    Constituent    Time Series    Type      Mfactor   Sfactor   Baseline  Pattern   
;;------- -------------- -------------- --------- --------- --------- --------- ---------
1C        FLOW           ""             FLOW      1         1         12.00000  
2C        FLOW           ""             FLOW      1         1         0.00000   
2I        FLOW           ""             FLOW      1         1         22.00000  
3C        FLOW           ""             FLOW      1         1         16.50000  
3I        FLOW           ""             FLOW      1         1         5.50000   
4C        FLOW           ""             FLOW      1         1         15.75000  
4I        FLOW           ""             FLOW      1         1         5.25000   
5C        FLOW           ""             FLOW      1         1         16.00000  
6C        FLOW           ""             FLOW      1         1         12.00000  
7C        FLOW           ""             FLOW      1         1         8.75000   
8C        FLOW           ""             FLOW      1         1         15.00000  
9C        FLOW           ""             FLOW      1         1         12.75000  
10C       FLOW           ""             FLOW      1         1         11.25000  
11C       FLOW           ""             FLOW      1         1         18.00000  
12C       FLOW           ""             FLOW      1         1         14.00000  
13C       FLOW           ""             FLOW      1         1         12.75000  
13I       FLOW           ""             FLOW      1         1         5.00000   
14C       FLOW           ""             FLOW      1         1         9.75000   
14I       FLOW           ""             FLOW      1         1         5.00000   
15C       FLOW           ""             FLOW      1         1         11.25000  
16C       FLOW           ""             FLOW      1         1         9.75000   
16I       FLOW           ""             FLOW      1         1         5.00000   
17C       FLOW           ""             FLOW      1         1         9.00000   
18C       FLOW           ""             FLOW      1         1         9.00000   
19I       FLOW           ""             FLOW      1         1         5.00000   
19Ib      FLOW           ""             FLOW      1         1         8.25000   
20C       FLOW           ""             FLOW      1         1         15.00000  
20I       FLOW           ""             FLOW      1         1         5.00000   
21C       FLOW           ""             FLOW      1         1         10.00000  
22C       FLOW           ""             FLOW      1         1         14.25000  
22I       FLOW           ""             FLOW      1         1         5.00000   
23C       FLOW           ""             FLOW      1         1         9.75000   
23I       FLOW           ""             FLOW      1         1         5.00000   
24C       FLOW           ""             FLOW      1         1         13.00000  
25C       FLOW           ""             FLOW      1         1         9.00000   
26C       FLOW           ""             FLOW      1         1         12.00000  
27C       FLOW           ""             FLOW      1         1         16.00000  
28C       FLOW           ""             FLOW      1         1         14.00000  
28I       FLOW           ""             FLOW      1         1         5.00000   
29C       FLOW           ""             FLOW      1         1         13.00000  
30C       FLOW           ""             FLOW      1         1         1.00000   
31C       FLOW           ""             FLOW      1         1         14.75000  
31I       FLOW           ""             FLOW      1         1         5.25000   
32C       FLOW           ""             FLOW      1         1         11.25000  
33C       FLOW           ""             FLOW      1         1         13.00000  
34I       FLOW           ""             FLOW      1         1         5.00000   
34Ib      FLOW           ""             FLOW      1         1         6.75000   
35C       FLOW           ""             FLOW      1         1         12.75000  
36C       FLOW           ""             FLOW      1         1         14.00000  
37I       FLOW           ""             FLOW      1         1         6.75000   
37Ib      FLOW           ""             FLOW      1         1         5.00000   
38C       FLOW           ""             FLOW      1         1         7.25000   
39C       FLOW           ""             FLOW      1         1         12.25000  
40C       FLOW           ""             FLOW      1         1         9.00000   
40I       FLOW           ""             FLOW      1         1         5.00000   
41C       FLOW           ""             FLOW      1         1         11.00000  
42C       FLOW           ""             FLOW      1         1         9.00000   
43C       FLOW           ""             FLOW      1         1         9.25000   
43I       FLOW           ""             FLOW      1         1         5.00000   
44C       FLOW           ""             FLOW      1         1         13.00000  
45C       FLOW           ""             FLOW      1         1         8.50000   
46C       FLOW           ""             FLOW      1         1         11.75000  
46I       FLOW           ""             FLOW      1         1         5.00000   
47C       FLOW           ""             FLOW      1         1         16.25000  
48C       FLOW           ""             FLOW      1         1         13.50000  
49C       FLOW           ""             FLOW      1         1         16.25000  
50C       FLOW           ""             FLOW      1         1         12.75000  
50I       FLOW           ""             FLOW      1         1         5.00000   
51C       FLOW           ""             FLOW      1         1         17.00000  
52C       FLOW           ""             FLOW      1         1         20.00000  
53C       FLOW           ""             FLOW      1         1         8.00000   
54I       FLOW           ""             FLOW      1         1         5.00000   
54Ib      FLOW           ""             FLOW      1         1         9.00000   
55C       FLOW           ""             FLOW      1         1         11.25000  
56C       FLOW           ""             FLOW      1         1         12.00000  
56I       FLOW           ""             FLOW      1         1         5.00000   
57C       FLOW           ""             FLOW      1         1         12.25000  
57I       FLOW           ""             FLOW      1         1         5.00000   
58C       FLOW           ""             FLOW      1         1         5.25000   
58I       FLOW           ""             FLOW      1         1         5.00000   
59C       FLOW           ""             FLOW      1         1         12.00000  
59I       FLOW           ""             FLOW      1         1         5.00000   
60C       FLOW           ""             FLOW      1         1         12.50000  
60I       FLOW           ""             FLOW      1         1         5.00000   
61C       FLOW           ""             FLOW      1         1         13.00000  
62C       FLOW           ""             FLOW      1         1         9.00000   
62I       FLOW           ""             FLOW      1         1         5.00000   
63C       FLOW           ""             FLOW      1         1         9.75000   
63I       FLOW           ""             FLOW      1         1         5.00000   
64C       FLOW           ""             FLOW      1         1         9.75000   
64I       FLOW           ""             FLOW      1         1         5.00000   
65C       FLOW           ""             FLOW      1         1         9.75000   
65I       FLOW           ""             FLOW      1         1         5.00000   
66C       FLOW           ""             FLOW      1         1         9.75000   
66I       FLOW           ""             FLOW      1         1         5.00000   
67C       FLOW           ""             FLOW      1         1         13.00000  
68C       FLOW           ""             FLOW      1         1         8.00000   
69C       FLOW           ""             FLOW      1         1         6.25000   
70C       FLOW           ""             FLOW      1         1         7.00000   
71C       FLOW           ""             FLOW      1         1         12.00000  
71I       FLOW           ""             FLOW      1         1         5.00000   
72C       FLOW           ""             FLOW      1         1         0.00000   
72I       FLOW           ""             FLOW      1         1         13.00000  
73C       FLOW           ""             FLOW      1         1         13.50000  
73I       FLOW           ""             FLOW      1         1         5.00000   
74C       FLOW           ""             FLOW      1         1         9.00000   
75C       FLOW           ""             FLOW      1         1         12.00000  
75I       FLOW           ""             FLOW      1         1         5.00000   
76C       FLOW           ""             FLOW      1         1         0.00000   
76I       FLOW           ""             FLOW      1         1         17.00000  
77C       FLOW           ""             FLOW      1         1         12.00000  
77I       FLOW           ""             FLOW      1         1         5.00000   
78C       FLOW           ""             FLOW      1         1         8.00000   
79C       FLOW           ""             FLOW      1         1         13.00000  
80C       FLOW           ""             FLOW      1         1         9.00000   
81C       FLOW           ""             FLOW      1         1         0.00000   
81I       FLOW           ""             FLOW      1         1         5.00000   
81Ib      FLOW           ""             FLOW      1         1         12.75000  
82C       FLOW           ""             FLOW      1         1         0.00000   
82I       FLOW           ""             FLOW      1         1         12.00000  
82Ib      FLOW           ""             FLOW      1         1         5.00000   
83C       FLOW           ""             FLOW      1         1         15.00000  
83I       FLOW           ""             FLOW      1         1         5.00000   
84C       FLOW           ""             FLOW      1         1         9.75000   
84I       FLOW           ""             FLOW      1         1         5.00000   
85C       FLOW           ""             FLOW      1         1         9.00000   
86C       FLOW           ""             FLOW      1         1         11.00000  
86I       FLOW           ""             FLOW      1         1         5.00000   
87C       FLOW           ""             FLOW      1         1         19.50000  
87I       FLOW           ""             FLOW      1         1         6.50000   
88C       FLOW           ""             FLOW      1         1         16.50000  
89C       FLOW           ""             FLOW      1         1         9.00000   
90C       FLOW           ""             FLOW      1         1         11.00000  
90I       FLOW           ""             FLOW      1         1         5.00000   
91C       FLOW           ""             FLOW      1         1         12.50000  
91I       FLOW           ""             FLOW      1         1         6.25000   
91Ib      FLOW           ""             FLOW      1         1         6.25000   
92C       FLOW           ""             FLOW      1         1         15.25000  
93C       FLOW           ""             FLOW      1         1         8.00000   
94C       FLOW           ""             FLOW      1         1         12.75000  
94I       FLOW           ""             FLOW      1         1         5.00000   
95C       FLOW           ""             FLOW      1         1         16.25000  
96I       FLOW           ""             FLOW      1         1         5.00000   
96Ib      FLOW           ""             FLOW      1         1         9.75000   
97C       FLOW           ""             FLOW      1         1         15.75000  
97I       FLOW           ""             FLOW      1         1         5.25000   
98C       FLOW           ""             FLOW      1         1         13.50000  
98I       FLOW           ""             FLOW      1         1         5.00000   
99C       FLOW           ""             FLOW      1         1         0.00000   
99I       FLOW           ""             FLOW      1         1         13.00000  
100C      FLOW           ""             FLOW      1         1         9.75000   
100I      FLOW           ""             FLOW      1         1         5.00000   
101C      FLOW           ""             FLOW      1         1         8.00000   
102C      FLOW           ""             FLOW      1         1         16.00000  
103C      FLOW           ""             FLOW      1         1         16.00000  
104C      FLOW           ""             FLOW      1         1         13.00000  
105C      FLOW           ""             FLOW      1         1         13.00000  
106C      FLOW           ""             FLOW      1         1         9.00000   
107C      FLOW           ""             FLOW      1         1         13.00000  
108C      FLOW           ""             FLOW      1         1         17.00000  

[REPORT]
;;Reporting Options
SUBCATCHMENTS ALL
NODES ALL
LINKS ALL

[TAGS]

[MAP]
DIMENSIONS 637.440 6553.980 2263.120 7952.490
Units      Meters

[COORDINATES]
;;Node    X-Coord   Y-Coord   
;;------- -------------- --------------
1C        2145.390       7352.390       
2C        1982.510       7441.010       
2I        1982.510       7441.010       
3C        1784.490       7532.930       
3I        1784.490       7532.930       
4C        1632.280       7617.990       
4I        1632.280       7617.990       
5C        1452.890       7704.760       
6C        1317.860       7779.490       
7C        2233.120       7204.600       
8C        2097.160       7271.090       
9C        1932.990       7372.470       
10C       1835.940       7416.570       
11C       1747.320       7462.520       
12C       1650.500       7499.210       
13C       1588.000       7531.500       
13I       1588.000       7531.500       
14C       1524.170       7564.570       
14I       1524.170       7564.570       
15C       1460.840       7597.470       
16C       1397.460       7630.550       
16I       1397.460       7630.550       
17C       1333.260       7661.290       
18C       1202.870       7770.980       
19I       2204.200       7149.600       
19Ib      2204.200       7149.600       
20C       2065.540       7218.980       
20I       2065.540       7218.980       
21C       1996.740       7259.190       
22C       1880.410       7313.670       
22I       1880.410       7313.670       
23C       1803.790       7353.820       
23I       1803.790       7353.820       
24C       1715.030       7400.080       
25C       1144.170       7710.550       
26C       2157.490       7087.170       
27C       2093.600       7119.760       
28C       2029.410       7153.100       
28I       2029.410       7153.100       
29C       1963.140       7187.670       
30C       1905.840       7224.420       
31C       1831.540       7256.250       
31I       1831.540       7256.250       
32C       1765.150       7289.850       
33C       1681.290       7333.850       
34I       1600.040       7388.100       
34Ib      1600.040       7388.100       
35C       1544.460       7448.030       
36C       1481.470       7481.980       
37I       1419.460       7517.890       
37Ib      1419.460       7517.890       
38C       1356.120       7550.700       
39C       1279.690       7558.360       
40C       1197.640       7600.630       
40I       1197.640       7600.630       
41C       1114.680       7643.680       
42C       1917.320       7098.980       
43C       1735.700       7224.200       
43I       1735.700       7224.200       
44C       1645.680       7265.070       
45C       1548.160       7315.990       
46C       1491.400       7345.580       
46I       1491.400       7345.580       
47C       1427.550       7377.920       
48C       1364.270       7411.310       
49C       1300.920       7444.200       
50C       1237.380       7477.060       
50I       1237.380       7477.060       
51C       1155.710       7519.680       
52C       1072.140       7561.270       
53C       1004.440       7596.190       
54I       2090.900       6933.350       
54Ib      2090.900       6933.350       
55C       2013.310       6965.140       
56C       1954.280       7002.500       
56I       1954.280       7002.500       
57C       1882.860       7032.930       
57I       1882.860       7032.930       
58C       1826.730       7064.100       
58I       1826.730       7064.100       
59C       1746.820       7099.010       
59I       1746.820       7099.010       
60C       1686.220       7129.440       
60I       1686.220       7129.440       
61C       1599.010       7175.990       
62C       1508.100       7223.400       
62I       1508.100       7223.400       
63C       1456.740       7260.950       
63I       1456.740       7260.950       
64C       1381.430       7289.200       
64I       1381.430       7289.200       
65C       1318.170       7322.350       
65I       1318.170       7322.350       
66C       1254.730       7355.180       
66I       1254.730       7355.180       
67C       1191.380       7388.100       
68C       1109.340       7429.940       
69C       962.530        7514.740       
70C       2056.960       6866.810       
71C       2002.760       6889.270       
71I       2002.760       6889.270       
72C       1920.350       6933.780       
72I       1920.350       6933.780       
73C       1832.900       6975.880       
73I       1832.900       6975.880       
74C       1728.080       7031.720       
75C       1649.080       7068.520       
75I       1649.080       7068.520       
76C       1559.390       7112.630       
76I       1559.390       7112.630       
77C       1471.370       7158.010       
77I       1471.370       7158.010       
78C       1393.920       7198.280       
79C       1305.240       7244.350       
80C       1230.890       7282.920       
81C       1155.260       7322.230       
81I       1155.260       7322.230       
81Ib      1155.260       7322.230       
82C       1076.770       7368.030       
82I       1076.770       7368.030       
82Ib      1076.770       7368.030       
83C       992.300        7407.290       
83I       992.300        7407.290       
84C       913.300        7446.360       
84I       913.300        7446.360       
85C       826.810        7493.270       
86C       1958.450       6815.650       
86I       1958.450       6815.650       
87C       1785.750       6898.330       
87I       1785.750       6898.330       
88C       1604.820       6992.610       
89C       1530.580       7035.670       
90C       1434.470       7086.980       
90I       1434.470       7086.980       
91C       1268.270       7173.470       
91I       1268.270       7173.470       
91Ib      1268.270       7173.470       
92C       1116.000       7247.090       
93C       1035.110       7288.280       
94C       955.690        7336.900       
94I       955.690        7336.900       
95C       788.200        7419.130       
96I       1910.250       6726.980       
96Ib      1910.250       6726.980       
97C       1744.420       6812.620       
97I       1744.420       6812.620       
98C       1569.160       6903.750       
98I       1569.160       6903.750       
99C       1475.040       6952.680       
99I       1475.040       6952.680       
100C      1391.340       6997.480       
100I      1391.340       6997.480       
101C      1302.310       7041.850       
102C      1224.800       7082.590       
103C      1071.640       7162.130       
104C      981.540        7207.820       
105C      901.300        7249.350       
106C      831.250        7286.180       
107C      741.360        7334.180       
108C      667.440        7367.240       
109C      584.86         7408.61        

[VERTICES]
;;Link      X-Coord   Y-Coord   
;;--------- --------- ---------
