[TITLE]
;;Project Title/Notes

[OPTIONS]
;;Option             Value
FLOW_UNITS           LPS
INFILTRATION         HORTON
FLOW_ROUTING         DYNWAVE
LINK_OFFSETS         DEPTH
MIN_SLOPE            0
ALLOW_PONDING        NO
SKIP_STEADY_STATE    NO

START_DATE           01/04/2025
START_TIME           00:00:00
REPORT_START_DATE    01/04/2025
REPORT_START_TIME    00:00:05
END_DATE             01/04/2025
END_TIME             3:00:00
SWEEP_START          1/1
SWEEP_END            12/31
DRY_DAYS             0
REPORT_STEP          0:03:00
WET_STEP             0:03:00
DRY_STEP             0:03:00
ROUTING_STEP         0:00:05
RULE_STEP            00:00:00

INERTIAL_DAMPING     PARTIAL
NORMAL_FLOW_LIMITED  BOTH
FORCE_MAIN_EQUATION  D-W
VARIABLE_STEP        0.75
LENGTHENING_STEP     0
MIN_SURFAREA         0
MAX_TRIALS           0
HEAD_TOLERANCE       0
SYS_FLOW_TOL         5
LAT_FLOW_TOL         5
MINIMUM_STEP         0.5
THREADS              1

[EVAPORATION]
;;Data Source    Parameters
;;-------------- ----------------
CONSTANT         0.0
DRY_ONLY         NO

[JUNCTIONS]
;;ID      Elevation MaxDepth  InitDepth SurDepth  Aponded   
;;------- --------- --------- --------- --------- ---------
1C        2560.530  1.400     0         0         0         
2C        2557.500  1.400     0         0         0         
2I        2557.500  1.400     0         0         0         
3C        2555.910  1.500     0         0         0         
3I        2556.010  1.400     0         0         0         
4C        2555.620  1.800     0         0         0         
4I        2556.020  1.400     0         0         0         
5C        2554.470  1.400     0         0         0         
6C        2553.550  1.400     0         0         0         
7C        2567.160  1.400     0         0         0         
8C        2561.710  1.400     0         0         0         
9C        2556.530  1.400     0         0         0         
10C       2555.630  1.700     0         0         0         
11C       2555.100  1.800     0         0         0         
12C       2554.620  2.100     0         0         0         
13C       2554.320  2.300     0         0         0         
13I       2555.220  1.400     0         0         0         
14C       2554.070  1.800     0         0         0         
15C       2553.780  2.000     0         0         0         
16C       2553.470  1.900     0         0         0         
16I       2553.970  1.400     0         0         0         
17C       2553.130  1.800     0         0         0         
18C       2552.450  1.400     0         0         0         
19I       2568.630  1.400     0         0         0         
19Ib      2568.630  1.400     0         0         0         
20C       2563.450  1.400     0         0         0         
20I       2563.450  1.400     0         0         0         
21C       2558.290  1.400     0         0         0         
22C       2557.300  1.400     0         0         0         
22I       2557.300  1.400     0         0         0         
23C       2555.940  1.400     0         0         0         
23I       2555.940  1.400     0         0         0         
24C       2555.300  1.700     0         0         0         
25C       2552.280  2.100     0         0         0         
26C       2571.600  1.400     0         0         0         
27C       2566.650  1.400     0         0         0         
28C       2564.310  1.400     0         0         0         
28I       2564.310  1.400     0         0         0         
29C       2561.480  1.400     0         0         0         
30C       2559.430  1.500     0         0         0         
31C       2557.910  1.500     0         0         0         
31I       2558.010  1.400     0         0         0         
32C       2556.400  1.500     0         0         0         
33C       2555.570  1.600     0         0         0         
34I       2555.740  1.400     0         0         0         
34Ib      2555.740  1.400     0         0         0         
35C       2554.710  1.400     0         0         0         
36C       2554.290  1.400     0         0         0         
37I       2554.440  1.400     0         0         0         
37Ib      2554.440  1.400     0         0         0         
38C       2553.650  1.600     0         0         0         
39C       2552.790  1.900     0         0         0         
40C       2552.490  2.100     0         0         0         
40I       2553.190  1.400     0         0         0         
41C       2552.190  2.100     0         0         0         
42C       2562.930  1.400     0         0         0         
43C       2557.570  1.400     0         0         0         
43I       2557.570  1.400     0         0         0         
44C       2556.000  1.400     0         0         0         
45C       2555.460  1.500     0         0         0         
46C       2555.050  1.400     0         0         0         
46I       2555.050  1.400     0         0         0         
47C       2554.530  1.400     0         0         0         
47I       2554.530  1.400     0         0         0         
48C       2553.770  1.700     0         0         0         
49C       2553.260  1.700     0         0         0         
50C       2552.860  1.900     0         0         0         
50I       2553.360  1.400     0         0         0         
51C       2552.230  2.000     0         0         0         
52C       2551.850  2.000     0         0         0         
53C       2551.540  2.200     0         0         0         
54I       2574.490  1.400     0         0         0         
54Ib      2574.490  1.400     0         0         0         
55C       2568.310  1.400     0         0         0         
56C       2565.580  1.400     0         0         0         
56I       2565.580  1.400     0         0         0         
57C       2564.090  1.400     0         0         0         
57I       2564.090  1.400     0         0         0         
58C       2563.230  1.400     0         0         0         
58I       2563.230  1.400     0         0         0         
59C       2560.840  1.400     0         0         0         
59I       2560.840  1.400     0         0         0         
60C       2559.100  1.400     0         0         0         
60I       2559.100  1.400     0         0         0         
61C       2556.740  1.400     0         0         0         
62C       2556.300  1.400     0         0         0         
62I       2556.300  1.400     0         0         0         
63C       2555.610  1.400     0         0         0         
63I       2555.610  1.400     0         0         0         
64C       2554.890  1.400     0         0         0         
64I       2554.890  1.400     0         0         0         
65C       2554.170  1.400     0         0         0         
65I       2554.170  1.400     0         0         0         
66C       2553.640  1.400     0         0         0         
66I       2553.640  1.400     0         0         0         
67C       2553.180  1.700     0         0         0         
68C       2553.250  1.400     0         0         0         
69C       2551.160  2.400     0         0         0         
70C       2574.190  1.900     0         0         0         
71C       2568.750  1.400     0         0         0         
71I       2568.750  1.400     0         0         0         
72C       2566.300  1.400     0         0         0         
72I       2566.300  1.400     0         0         0         
73C       2564.440  1.500     0         0         0         
73I       2564.540  1.400     0         0         0         
74C       2562.190  1.500     0         0         0         
75C       2559.540  1.500     0         0         0         
75I       2559.640  1.400     0         0         0         
76C       2557.440  1.600     0         0         0         
76I       2557.640  1.400     0         0         0         
77C       2556.390  1.600     0         0         0         
77I       2556.590  1.400     0         0         0         
78C       2555.570  1.700     0         0         0         
79C       2554.220  1.600     0         0         0         
80C       2553.730  1.700     0         0         0         
81C       2553.410  1.900     0         0         0         
81I       2553.910  1.400     0         0         0         
81Ib      2553.910  1.400     0         0         0         
82C       2553.560  1.400     0         0         0         
82I       2553.560  1.400     0         0         0         
82Ib      2553.560  1.400     0         0         0         
83C       2552.390  1.700     0         0         0         
83I       2552.690  1.400     0         0         0         
84C       2550.830  3.300     0         0         0         
84I       2552.730  1.400     0         0         0         
85C       2550.360  3.000     0         0         0         
86C       2571.630  1.400     0         0         0         
86I       2571.630  1.400     0         0         0         
87C       2564.750  1.400     0         0         0         
87I       2564.750  1.400     0         0         0         
88C       2560.560  1.400     0         0         0         
89C       2558.460  1.400     0         0         0         
90C       2557.310  1.400     0         0         0         
90I       2557.310  1.400     0         0         0         
91C       2555.020  1.400     0         0         0         
91I       2555.020  1.400     0         0         0         
91Ib      2555.020  1.400     0         0         0         
92C       2553.570  1.700     0         0         0         
93C       2553.110  1.400     0         0         0         
94C       2552.410  1.500     0         0         0         
94I       2552.510  1.400     0         0         0         
95C       2549.950  3.100     0         0         0         
96I       2573.780  1.400     0         0         0         
96Ib      2573.780  1.400     0         0         0         
97C       2567.860  1.400     0         0         0         
97I       2567.860  1.400     0         0         0         
98C       2563.090  1.400     0         0         0         
98I       2563.090  1.400     0         0         0         
99C       2559.380  1.400     0         0         0         
99I       2559.380  1.400     0         0         0         
100C      2558.600  1.400     0         0         0         
100I      2558.600  1.400     0         0         0         
101C      2556.600  1.400     0         0         0         
102C      2553.930  1.400     0         0         0         
103C      2553.110  1.700     0         0         0         
104C      2552.430  1.800     0         0         0         
105C      2550.550  1.500     0         0         0         
106C      2550.120  1.600     0         0         0         
107C      2549.530  2.100     0         0         0         
108C      2548.860  2.600     0         0         0         

[OUTFALLS]
;;Name    Elevation      Type      Stage Data     Gated     Route To  
;;------- -------------- --------- -------------- --------- ---------
109C      2547.850       FREE                     NO        

[CONDUITS]
;;Name    FromNode  ToNode    Length    Roughness InOffset  OutOffset InitFlow  MaxFlow   
;;------- --------- --------- --------- --------- --------- --------- --------- ---------
T1        2I        9C        84.563    0.0082    0.000     0.000     5.50000   0         
T2        3I        4C        174.365   0.0082    0.000     0.000     22.00000  0         
T3        4C        5C        199.277   0.0082    0.000     0.000     22.00000  0         
T4        5C        6C        154.332   0.0082    0.000     0.000     38.00000  0         
T5        6C        18C       115.310   0.0082    0.000     0.000     50.00000  0         
T6        18C       25C       84.247    0.0082    0.000     0.000     59.00000  0         
T7        25C       41C       73.084    0.0082    0.000     0.000     68.00000  0         
T8        41C       52C       92.742    0.0082    0.000     0.200     84.00000  0         
T9        4I        13C       97.169    0.0082    0.000     0.800     21.00000  0         
T10       13I       35C       94.145    0.0082    0.000     0.000     4.25000   0         
T11       16I       38C       89.917    0.0082    0.000     0.000     3.25000   0         
T12       38C       49C       119.956   0.0082    0.000     0.000     12.25000  0         
T13       19I       7C        62.157    0.0082    0.000     0.000     8.25000   0         
T14       7C        8C        151.446   0.0082    0.000     0.000     19.25000  0         
T15       19Ib      20C       155.135   0.0082    0.000     0.000     2.75000   0         
T16       20I       8C        60.978    0.0082    0.000     0.000     20.00000  0         
T17       8C        1C        94.537    0.0082    0.000     0.000     54.25000  0         
T18       1C        2C        185.452   0.0082    0.000     0.000     66.25000  0         
T19       2C        3C        218.320   0.0082    0.000     0.000     82.75000  0         
T20       3C        11C       79.621    0.0082    0.000     0.300     82.75000  0         
T21       22I       9C        78.884    0.0082    0.000     0.000     19.00000  0         
T22       9C        10C       106.601   0.0082    0.000     0.300     37.50000  0         
T23       23I       10C       70.507    0.0082    0.000     0.000     3.25000   0         
T24       10C       11C       99.825    0.0082    0.000     0.300     53.75000  0         
T25       28I       20C       75.142    0.0082    0.000     0.000     5.00000   0         
T26       20C       21C       79.856    0.0082    0.000     0.000     7.75000   0         
T27       21C       22C       128.459   0.0082    0.000     0.000     17.75000  0         
T28       31I       22C       75.404    0.0082    0.000     0.000     5.25000   0         
T29       22C       23C       86.513    0.0082    0.000     0.000     23.00000  0         
T30       23C       24C       100.093   0.0082    0.000     0.200     32.75000  0         
T31       13C       14C       71.888    0.0082    0.000     0.000     514.75000 0         
T32       34I       12C       122.032   0.0082    0.000     0.700     6.75000   0         
T33       34Ib      45C       88.834    0.0082    0.000     0.000     2.25000   0         
T34       45C       46C       64.011    0.0082    0.000     0.000     19.50000  0         
T35       37I       15C       89.696    0.0082    0.000     0.300     6.75000   0         
T36       37Ib      48C       120.022   0.0082    0.000     0.300     2.25000   0         
T37       40I       41C       93.465    0.0082    0.000     0.700     3.00000   0         
T38       43I       32C       71.961    0.0082    0.000     0.100     3.25000   0         
T39       46I       35C       115.375   0.0082    0.000     0.000     18.00000  0         
T40       35C       36C       71.558    0.0082    0.000     0.000     36.25000  0         
T41       47I       36C       117.200   0.0082    0.000     0.000     18.00000  0         
T42       36C       14C       92.976    0.0082    0.000     0.000     68.25000  0         
T43       50I       39C       91.651    0.0082    0.000     0.200     4.25000   0         
T44       40C       51C       91.165    0.0082    0.000     0.000     660.75000 0         
T45       51C       52C       93.348    0.0082    0.000     0.000     1113.500000         
T46       54I       26C       167.640   0.0082    0.000     0.000     3.00000   0         
T47       26C       27C       71.893    0.0082    0.000     0.000     15.00000  0         
T48       54Ib      70C       74.697    0.0082    0.000     0.000     9.00000   0         
T49       70C       71C       58.921    0.0082    0.000     0.000     18.00000  0         
T50       56I       28C       168.305   0.0082    0.000     0.000     4.00000   0         
T51       57I       58C       64.210    0.0082    0.000     0.000     17.00000  0         
T52       58C       30C       178.814   0.0082    0.000     0.100     23.00000  0         
T53       58I       59C       87.235    0.0082    0.000     0.000     2.00000   0         
T54       59C       31C       178.633   0.0082    0.000     0.100     14.00000  0         
T55       59I       60C       67.833    0.0082    0.000     0.000     4.00000   0         
T56       60I       43C       106.912   0.0082    0.000     0.000     18.00000  0         
T57       43C       44C       98.876    0.0082    0.000     0.000     27.75000  0         
T58       62I       63C       63.626    0.0082    0.000     0.000     13.00000  0         
T59       63C       64C       80.437    0.0082    0.000     0.000     22.75000  0         
T60       64C       65C       71.423    0.0082    0.000     0.000     32.50000  0         
T61       65C       66C       71.433    0.0082    0.000     0.000     42.25000  0         
T62       66C       67C       71.393    0.0082    0.000     0.200     52.00000  0         
T63       63I       46C       91.454    0.0082    0.000     0.000     3.25000   0         
T64       64I       47C       99.992    0.0082    0.000     0.000     3.25000   0         
T65       65I       48C       100.196   0.0082    0.000     0.000     3.25000   0         
T66       48C       49C       71.380    0.0082    0.000     0.200     49.50000  0         
T67       66I       49C       100.291   0.0082    0.000     0.000     3.25000   0         
T68       49C       50C       71.534    0.0082    0.000     0.200     83.00000  0         
T69       71I       55C       76.601    0.0082    0.000     0.000     4.25000   0         
T70       55C       27C       174.231   0.0082    0.000     0.000     16.25000  0         
T71       27C       28C       72.370    0.0082    0.000     0.000     47.25000  0         
T72       28C       29C       74.798    0.0082    0.000     0.000     66.25000  0         
T73       72I       56C       76.643    0.0082    0.000     0.000     3.25000   0         
T74       56C       57C       77.647    0.0082    0.000     0.000     15.25000  0         
T75       73I       57C       75.835    0.0082    0.000     0.000     4.50000   0         
T76       57C       42C       74.508    0.0082    0.000     0.000     19.75000  0         
T77       42C       29C       99.837    0.0082    0.000     0.000     28.75000  0         
T78       29C       30C       68.103    0.0082    0.000     0.000     108.00000 0         
T79       30C       31C       80.845    0.0082    0.000     0.000     135.00000 0         
T80       31C       32C       74.424    0.0082    0.000     0.000     164.75000 0         
T81       32C       33C       94.706    0.0082    0.000     0.000     181.00000 0         
T82       75I       60C       71.351    0.0082    0.000     0.000     4.00000   0         
T83       60C       61C       98.884    0.0082    0.000     0.000     8.00000   0         
T84       76I       61C       74.733    0.0082    0.000     0.000     4.25000   0         
T85       61C       44C       100.568   0.0082    0.000     0.000     25.25000  0         
T86       44C       33C       77.453    0.0082    0.000     0.000     66.00000  0         
T87       33C       24C       74.329    0.0082    0.000     0.000     260.00000 0         
T88       24C       11C       70.295    0.0082    0.000     0.000     305.75000 0         
T89       11C       12C       103.540   0.0082    0.000     0.000     460.25000 0         
T90       12C       13C       70.349    0.0082    0.000     0.000     481.00000 0         
T91       14C       15C       71.367    0.0082    0.000     0.000     596.00000 0         
T92       15C       16C       71.494    0.0082    0.000     0.000     615.75000 0         
T93       16C       17C       71.181    0.0082    0.000     0.000     625.50000 0         
T94       17C       39C       116.036   0.0082    0.000     0.000     634.50000 0         
T95       39C       40C       92.298    0.0082    0.000     0.000     651.75000 0         
T96       77I       62C       75.000    0.0082    0.000     0.000     4.25000   0         
T97       62C       45C       100.887   0.0082    0.000     0.100     4.25000   0         
T98       46C       47C       71.575    0.0082    0.000     0.000     22.75000  0         
T99       47C       48C       71.550    0.0082    0.000     0.300     26.00000  0         
T100      81I       82C       90.876    0.0082    0.000     0.000     4.25000   0         
T101      82C       83C       93.152    0.0082    0.000     0.300     12.25000  0         
T102      81Ib      92C       84.779    0.0082    0.000     0.000     12.75000  0         
T103      92C       103C      95.844    0.0082    0.000     0.200     44.75000  0         
T104      82I       68C       69.955    0.0082    0.000     0.000     4.00000   0         
T105      68C       51C       101.013   0.0082    0.000     0.600     13.00000  0         
T106      82Ib      93C       89.977    0.0082    0.000     0.000     4.00000   0         
T107      93C       104C      96.663    0.0082    0.000     0.300     12.00000  0         
T108      83I       94C       79.342    0.0082    0.000     0.000     5.00000   0         
T109      94C       105C      103.084   0.0082    0.000     0.100     17.75000  0         
T110      84I       83C       88.134    0.0082    0.000     0.000     3.25000   0         
T111      83C       52C       173.448   0.0082    0.000     0.300     30.50000  0         
T112      86I       71C       85.974    0.0082    0.000     0.000     16.00000  0         
T113      71C       72C       93.694    0.0082    0.000     0.000     46.75000  0         
T114      72C       73C       97.072    0.0082    0.000     0.100     56.50000  0         
T115      87I       73C       90.759    0.0082    0.000     0.000     26.00000  0         
T116      73C       74C       118.787   0.0082    0.000     0.000     96.00000  0         
T117      74C       75C       87.191    0.0082    0.000     0.000     105.00000 0         
T118      75C       76C       99.972    0.0082    0.000     0.000     148.00000 0         
T119      76C       77C       99.035    0.0082    0.000     0.000     208.75000 0         
T120      90I       77C       80.046    0.0082    0.000     0.200     4.25000   0         
T121      91I       79C       79.944    0.0082    0.000     0.200     6.25000   0         
T122      91Ib      102C      100.747   0.0082    0.000     0.000     18.75000  0         
T123      94I       95C       186.590   0.0082    0.000     1.500     4.25000   0         
T124      96I       86C       100.947   0.0082    0.000     0.000     3.25000   0         
T125      86C       87C       191.595   0.0082    0.000     0.000     4.25000   0         
T126      96Ib      97C       186.732   0.0082    0.000     0.000     9.75000   0         
T127      97C       98C       197.594   0.0082    0.000     0.000     25.50000  0         
T128      98C       99C       106.144   0.0082    0.000     0.000     39.00000  0         
T129      99C       89C       99.864    0.0082    0.000     0.000     39.00000  0         
T130      89C       76C       82.180    0.0082    0.000     0.200     48.00000  0         
T131      97I       87C       95.205    0.0082    0.000     0.000     5.25000   0         
T132      87C       88C       204.064   0.0082    0.000     0.000     9.50000   0         
T133      98I       88C       95.782    0.0082    0.000     0.000     4.50000   0         
T134      88C       75C       87.876    0.0082    0.000     0.100     31.00000  0         
T135      77C       78C       87.297    0.0082    0.000     0.000     225.75000 0         
T136      78C       79C       99.942    0.0082    0.000     0.000     233.75000 0         
T137      79C       80C       83.760    0.0082    0.000     0.000     253.00000 0         
T138      80C       81C       85.237    0.0082    0.000     0.000     262.00000 0         
T139      81C       67C       75.124    0.0082    0.000     0.000     262.00000 0         
T140      67C       50C       100.150   0.0082    0.000     0.000     327.00000 0         
T141      50C       51C       92.123    0.0082    0.000     0.200     422.75000 0         
T142      52C       53C       76.176    0.0082    0.000     0.000     1248.000000         
T143      53C       69C       91.601    0.0082    0.000     0.000     1256.000000         
T144      69C       84C       84.259    0.0082    0.000     0.000     1264.000000         
T145      84C       85C       98.394    0.0082    0.000     0.000     1273.750000         
T146      85C       95C       83.592    0.0082    0.000     0.000     1282.750000         
T147      95C       107C      97.009    0.0082    0.000     0.000     1304.000000         
T148      107C      108C      80.977    0.0082    0.000     0.000     1508.000000         
T149      99I       100C      94.939    0.0082    0.000     0.000     13.00000  0         
T150      100C      101C      99.494    0.0082    0.000     0.000     22.75000  0         
T151      101C      102C      87.605    0.0082    0.000     0.000     30.75000  0         
T152      102C      103C      172.584   0.0082    0.000     0.000     65.50000  0         
T153      103C      104C      101.025   0.0082    0.000     0.000     126.25000 0         
T154      104C      105C      90.370    0.0082    0.000     0.000     151.25000 0         
T155      100I      90C       99.358    0.0082    0.000     0.000     3.25000   0         
T156      90C       91C       187.372   0.0082    0.000     0.000     16.00000  0         
T157      91C       92C       169.137   0.0082    0.000     0.300     16.00000  0         
T158      105C      106C      79.143    0.0082    0.000     0.000     182.00000 0         
T159      106C      107C      101.904   0.0082    0.000     0.200     191.00000 0         
T160      108C      109C      92.369    0.0082    0.000     0.000     1525.000000         

[XSECTIONS]
;;Link    Shape          Geom1     Geom2     Geom3     Geom4     Barrels   Culvert   
;;------- -------------- --------- --------- --------- --------- --------- ---------
T1        CIRCULAR       0.200     0         0         0         1         
T2        CIRCULAR       0.200     0         0         0         1         
T3        CIRCULAR       0.200     0         0         0         1         
T4        CIRCULAR       0.200     0         0         0         1         
T5        CIRCULAR       0.200     0         0         0         1         
T6        CIRCULAR       0.300     0         0         0         1         
T7        CIRCULAR       0.350     0         0         0         1         
T8        CIRCULAR       0.350     0         0         0         1         
T9        CIRCULAR       0.200     0         0         0         1         
T10       CIRCULAR       0.200     0         0         0         1         
T11       CIRCULAR       0.200     0         0         0         1         
T12       CIRCULAR       0.200     0         0         0         1         
T13       CIRCULAR       0.200     0         0         0         1         
T14       CIRCULAR       0.200     0         0         0         1         
T15       CIRCULAR       0.200     0         0         0         1         
T16       CIRCULAR       0.200     0         0         0         1         
T17       CIRCULAR       0.200     0         0         0         1         
T18       CIRCULAR       0.200     0         0         0         1         
T19       CIRCULAR       0.250     0         0         0         1         
T20       CIRCULAR       0.300     0         0         0         1         
T21       CIRCULAR       0.200     0         0         0         1         
T22       CIRCULAR       0.200     0         0         0         1         
T23       CIRCULAR       0.200     0         0         0         1         
T24       CIRCULAR       0.300     0         0         0         1         
T25       CIRCULAR       0.200     0         0         0         1         
T26       CIRCULAR       0.200     0         0         0         1         
T27       CIRCULAR       0.200     0         0         0         1         
T28       CIRCULAR       0.200     0         0         0         1         
T29       CIRCULAR       0.200     0         0         0         1         
T30       CIRCULAR       0.200     0         0         0         1         
T31       CIRCULAR       0.600     0         0         0         1         
T32       CIRCULAR       0.200     0         0         0         1         
T33       CIRCULAR       0.200     0         0         0         1         
T34       CIRCULAR       0.200     0         0         0         1         
T35       CIRCULAR       0.200     0         0         0         1         
T36       CIRCULAR       0.200     0         0         0         1         
T37       CIRCULAR       0.200     0         0         0         1         
T38       CIRCULAR       0.200     0         0         0         1         
T39       CIRCULAR       0.200     0         0         0         1         
T40       CIRCULAR       0.200     0         0         0         1         
T41       CIRCULAR       0.200     0         0         0         1         
T42       CIRCULAR       0.300     0         0         0         1         
T43       CIRCULAR       0.200     0         0         0         1         
T44       CIRCULAR       0.700     0         0         0         1         
T45       CIRCULAR       0.800     0         0         0         1         
T46       CIRCULAR       0.200     0         0         0         1         
T47       CIRCULAR       0.200     0         0         0         1         
T48       CIRCULAR       0.200     0         0         0         1         
T49       CIRCULAR       0.200     0         0         0         1         
T50       CIRCULAR       0.200     0         0         0         1         
T51       CIRCULAR       0.200     0         0         0         1         
T52       CIRCULAR       0.200     0         0         0         1         
T53       CIRCULAR       0.200     0         0         0         1         
T54       CIRCULAR       0.200     0         0         0         1         
T55       CIRCULAR       0.200     0         0         0         1         
T56       CIRCULAR       0.200     0         0         0         1         
T57       CIRCULAR       0.200     0         0         0         1         
T58       CIRCULAR       0.200     0         0         0         1         
T59       CIRCULAR       0.200     0         0         0         1         
T60       CIRCULAR       0.200     0         0         0         1         
T61       CIRCULAR       0.200     0         0         0         1         
T62       CIRCULAR       0.250     0         0         0         1         
T63       CIRCULAR       0.200     0         0         0         1         
T64       CIRCULAR       0.200     0         0         0         1         
T65       CIRCULAR       0.200     0         0         0         1         
T66       CIRCULAR       0.250     0         0         0         1         
T67       CIRCULAR       0.200     0         0         0         1         
T68       CIRCULAR       0.350     0         0         0         1         
T69       CIRCULAR       0.200     0         0         0         1         
T70       CIRCULAR       0.200     0         0         0         1         
T71       CIRCULAR       0.200     0         0         0         1         
T72       CIRCULAR       0.200     0         0         0         1         
T73       CIRCULAR       0.200     0         0         0         1         
T74       CIRCULAR       0.200     0         0         0         1         
T75       CIRCULAR       0.200     0         0         0         1         
T76       CIRCULAR       0.200     0         0         0         1         
T77       CIRCULAR       0.200     0         0         0         1         
T78       CIRCULAR       0.250     0         0         0         1         
T79       CIRCULAR       0.250     0         0         0         1         
T80       CIRCULAR       0.300     0         0         0         1         
T81       CIRCULAR       0.350     0         0         0         1         
T82       CIRCULAR       0.200     0         0         0         1         
T83       CIRCULAR       0.200     0         0         0         1         
T84       CIRCULAR       0.200     0         0         0         1         
T85       CIRCULAR       0.200     0         0         0         1         
T86       CIRCULAR       0.250     0         0         0         1         
T87       CIRCULAR       0.450     0         0         0         1         
T88       CIRCULAR       0.500     0         0         0         1         
T89       CIRCULAR       0.530     0         0         0         1         
T90       CIRCULAR       0.600     0         0         0         1         
T91       CIRCULAR       0.600     0         0         0         1         
T92       CIRCULAR       0.600     0         0         0         1         
T93       CIRCULAR       0.600     0         0         0         1         
T94       CIRCULAR       0.700     0         0         0         1         
T95       CIRCULAR       0.700     0         0         0         1         
T96       CIRCULAR       0.200     0         0         0         1         
T97       CIRCULAR       0.200     0         0         0         1         
T98       CIRCULAR       0.200     0         0         0         1         
T99       CIRCULAR       0.200     0         0         0         1         
T100      CIRCULAR       0.200     0         0         0         1         
T101      CIRCULAR       0.200     0         0         0         1         
T102      CIRCULAR       0.200     0         0         0         1         
T103      CIRCULAR       0.250     0         0         0         1         
T104      CIRCULAR       0.200     0         0         0         1         
T105      CIRCULAR       0.200     0         0         0         1         
T106      CIRCULAR       0.200     0         0         0         1         
T107      CIRCULAR       0.200     0         0         0         1         
T108      CIRCULAR       0.200     0         0         0         1         
T109      CIRCULAR       0.200     0         0         0         1         
T110      CIRCULAR       0.200     0         0         0         1         
T111      CIRCULAR       0.250     0         0         0         1         
T112      CIRCULAR       0.200     0         0         0         1         
T113      CIRCULAR       0.200     0         0         0         1         
T114      CIRCULAR       0.200     0         0         0         1         
T115      CIRCULAR       0.200     0         0         0         1         
T116      CIRCULAR       0.250     0         0         0         1         
T117      CIRCULAR       0.250     0         0         0         1         
T118      CIRCULAR       0.250     0         0         0         1         
T119      CIRCULAR       0.350     0         0         0         1         
T120      CIRCULAR       0.200     0         0         0         1         
T121      CIRCULAR       0.200     0         0         0         1         
T122      CIRCULAR       0.200     0         0         0         1         
T123      CIRCULAR       0.200     0         0         0         1         
T124      CIRCULAR       0.200     0         0         0         1         
T125      CIRCULAR       0.200     0         0         0         1         
T126      CIRCULAR       0.200     0         0         0         1         
T127      CIRCULAR       0.200     0         0         0         1         
T128      CIRCULAR       0.200     0         0         0         1         
T129      CIRCULAR       0.200     0         0         0         1         
T130      CIRCULAR       0.200     0         0         0         1         
T131      CIRCULAR       0.200     0         0         0         1         
T132      CIRCULAR       0.200     0         0         0         1         
T133      CIRCULAR       0.200     0         0         0         1         
T134      CIRCULAR       0.200     0         0         0         1         
T135      CIRCULAR       0.350     0         0         0         1         
T136      CIRCULAR       0.350     0         0         0         1         
T137      CIRCULAR       0.400     0         0         0         1         
T138      CIRCULAR       0.450     0         0         0         1         
T139      CIRCULAR       0.500     0         0         0         1         
T140      CIRCULAR       0.500     0         0         0         1         
T141      CIRCULAR       0.530     0         0         0         1         
T142      CIRCULAR       0.800     0         0         0         1         
T143      CIRCULAR       0.800     0         0         0         1         
T144      CIRCULAR       0.800     0         0         0         1         
T145      CIRCULAR       0.800     0         0         0         1         
T146      CIRCULAR       0.800     0         0         0         1         
T147      CIRCULAR       0.800     0         0         0         1         
T148      CIRCULAR       0.800     0         0         0         1         
T149      CIRCULAR       0.200     0         0         0         1         
T150      CIRCULAR       0.200     0         0         0         1         
T151      CIRCULAR       0.200     0         0         0         1         
T152      CIRCULAR       0.250     0         0         0         1         
T153      CIRCULAR       0.300     0         0         0         1         
T154      CIRCULAR       0.300     0         0         0         1         
T155      CIRCULAR       0.200     0         0         0         1         
T156      CIRCULAR       0.200     0         0         0         1         
T157      CIRCULAR       0.200     0         0         0         1         
T158      CIRCULAR       0.380     0         0         0         1         
T159      CIRCULAR       0.400     0         0         0         1         
T160      CIRCULAR       0.700     0         0         0         1         

[INFLOWS]
;;Node    Constituent    Time Series    Type      Mfactor   Sfactor   Baseline  Pattern   
;;------- -------------- -------------- --------- --------- --------- --------- ---------
1C        FLOW           1C             FLOW      1         1         0.00000   
2C        FLOW           2C             FLOW      1         1         0.00000   
2I        FLOW           2I             FLOW      1         1         0.00000   
3C        FLOW           3C             FLOW      1         1         0.00000   
3I        FLOW           3I             FLOW      1         1         0.00000   
4C        FLOW           4C             FLOW      1         1         0.00000   
4I        FLOW           4I             FLOW      1         1         0.00000   
5C        FLOW           5C             FLOW      1         1         0.00000   
6C        FLOW           6C             FLOW      1         1         0.00000   
7C        FLOW           7C             FLOW      1         1         0.00000   
8C        FLOW           8C             FLOW      1         1         0.00000   
9C        FLOW           9C             FLOW      1         1         0.00000   
10C       FLOW           10C            FLOW      1         1         0.00000   
11C       FLOW           11C            FLOW      1         1         0.00000   
12C       FLOW           12C            FLOW      1         1         0.00000   
13C       FLOW           13C            FLOW      1         1         0.00000   
13I       FLOW           13I            FLOW      1         1         0.00000   
14C       FLOW           14C            FLOW      1         1         0.00000   
15C       FLOW           15C            FLOW      1         1         0.00000   
16C       FLOW           16C            FLOW      1         1         0.00000   
16I       FLOW           16I            FLOW      1         1         0.00000   
17C       FLOW           17C            FLOW      1         1         0.00000   
18C       FLOW           18C            FLOW      1         1         0.00000   
19I       FLOW           19I            FLOW      1         1         0.00000   
19Ib      FLOW           19Ib           FLOW      1         1         0.00000   
20C       FLOW           20C            FLOW      1         1         0.00000   
20I       FLOW           20I            FLOW      1         1         0.00000   
21C       FLOW           21C            FLOW      1         1         0.00000   
22C       FLOW           22C            FLOW      1         1         0.00000   
22I       FLOW           22I            FLOW      1         1         0.00000   
23C       FLOW           23C            FLOW      1         1         0.00000   
23I       FLOW           23I            FLOW      1         1         0.00000   
24C       FLOW           24C            FLOW      1         1         0.00000   
25C       FLOW           25C            FLOW      1         1         0.00000   
26C       FLOW           26C            FLOW      1         1         0.00000   
27C       FLOW           27C            FLOW      1         1         0.00000   
28C       FLOW           28C            FLOW      1         1         0.00000   
28I       FLOW           28I            FLOW      1         1         0.00000   
29C       FLOW           29C            FLOW      1         1         0.00000   
30C       FLOW           30C            FLOW      1         1         0.00000   
31C       FLOW           31C            FLOW      1         1         0.00000   
31I       FLOW           31I            FLOW      1         1         0.00000   
32C       FLOW           32C            FLOW      1         1         0.00000   
33C       FLOW           33C            FLOW      1         1         0.00000   
34I       FLOW           34I            FLOW      1         1         0.00000   
34Ib      FLOW           34Ib           FLOW      1         1         0.00000   
35C       FLOW           35C            FLOW      1         1         0.00000   
36C       FLOW           36C            FLOW      1         1         0.00000   
37I       FLOW           37I            FLOW      1         1         0.00000   
37Ib      FLOW           37Ib           FLOW      1         1         0.00000   
38C       FLOW           38C            FLOW      1         1         0.00000   
39C       FLOW           39C            FLOW      1         1         0.00000   
40C       FLOW           40C            FLOW      1         1         0.00000   
40I       FLOW           40I            FLOW      1         1         0.00000   
41C       FLOW           41C            FLOW      1         1         0.00000   
42C       FLOW           42C            FLOW      1         1         0.00000   
43C       FLOW           43C            FLOW      1         1         0.00000   
43I       FLOW           43I            FLOW      1         1         0.00000   
44C       FLOW           44C            FLOW      1         1         0.00000   
45C       FLOW           45C            FLOW      1         1         0.00000   
46C       FLOW           46C            FLOW      1         1         0.00000   
46I       FLOW           46I            FLOW      1         1         0.00000   
47C       FLOW           47C            FLOW      1         1         0.00000   
47I       FLOW           47I            FLOW      1         1         0.00000   
48C       FLOW           48C            FLOW      1         1         0.00000   
49C       FLOW           49C            FLOW      1         1         0.00000   
50C       FLOW           50C            FLOW      1         1         0.00000   
50I       FLOW           50I            FLOW      1         1         0.00000   
51C       FLOW           51C            FLOW      1         1         0.00000   
52C       FLOW           52C            FLOW      1         1         0.00000   
53C       FLOW           53C            FLOW      1         1         0.00000   
54I       FLOW           54I            FLOW      1         1         0.00000   
54Ib      FLOW           54Ib           FLOW      1         1         0.00000   
55C       FLOW           55C            FLOW      1         1         0.00000   
56C       FLOW           56C            FLOW      1         1         0.00000   
56I       FLOW           56I            FLOW      1         1         0.00000   
57C       FLOW           57C            FLOW      1         1         0.00000   
57I       FLOW           57I            FLOW      1         1         0.00000   
58C       FLOW           58C            FLOW      1         1         0.00000   
58I       FLOW           58I            FLOW      1         1         0.00000   
59C       FLOW           59C            FLOW      1         1         0.00000   
59I       FLOW           59I            FLOW      1         1         0.00000   
60C       FLOW           60C            FLOW      1         1         0.00000   
60I       FLOW           60I            FLOW      1         1         0.00000   
61C       FLOW           61C            FLOW      1         1         0.00000   
62C       FLOW           62C            FLOW      1         1         0.00000   
62I       FLOW           62I            FLOW      1         1         0.00000   
63C       FLOW           63C            FLOW      1         1         0.00000   
63I       FLOW           63I            FLOW      1         1         0.00000   
64C       FLOW           64C            FLOW      1         1         0.00000   
64I       FLOW           64I            FLOW      1         1         0.00000   
65C       FLOW           65C            FLOW      1         1         0.00000   
65I       FLOW           65I            FLOW      1         1         0.00000   
66C       FLOW           66C            FLOW      1         1         0.00000   
66I       FLOW           66I            FLOW      1         1         0.00000   
67C       FLOW           67C            FLOW      1         1         0.00000   
68C       FLOW           68C            FLOW      1         1         0.00000   
69C       FLOW           69C            FLOW      1         1         0.00000   
70C       FLOW           70C            FLOW      1         1         0.00000   
71C       FLOW           71C            FLOW      1         1         0.00000   
71I       FLOW           71I            FLOW      1         1         0.00000   
72C       FLOW           72C            FLOW      1         1         0.00000   
72I       FLOW           72I            FLOW      1         1         0.00000   
73C       FLOW           73C            FLOW      1         1         0.00000   
73I       FLOW           73I            FLOW      1         1         0.00000   
74C       FLOW           74C            FLOW      1         1         0.00000   
75C       FLOW           75C            FLOW      1         1         0.00000   
75I       FLOW           75I            FLOW      1         1         0.00000   
76C       FLOW           76C            FLOW      1         1         0.00000   
76I       FLOW           76I            FLOW      1         1         0.00000   
77C       FLOW           77C            FLOW      1         1         0.00000   
77I       FLOW           77I            FLOW      1         1         0.00000   
78C       FLOW           78C            FLOW      1         1         0.00000   
79C       FLOW           79C            FLOW      1         1         0.00000   
80C       FLOW           80C            FLOW      1         1         0.00000   
81C       FLOW           81C            FLOW      1         1         0.00000   
81I       FLOW           81I            FLOW      1         1         0.00000   
81Ib      FLOW           81Ib           FLOW      1         1         0.00000   
82C       FLOW           82C            FLOW      1         1         0.00000   
82I       FLOW           82I            FLOW      1         1         0.00000   
82Ib      FLOW           82Ib           FLOW      1         1         0.00000   
83C       FLOW           83C            FLOW      1         1         0.00000   
83I       FLOW           83I            FLOW      1         1         0.00000   
84C       FLOW           84C            FLOW      1         1         0.00000   
84I       FLOW           84I            FLOW      1         1         0.00000   
85C       FLOW           85C            FLOW      1         1         0.00000   
86C       FLOW           86C            FLOW      1         1         0.00000   
86I       FLOW           86I            FLOW      1         1         0.00000   
87C       FLOW           87C            FLOW      1         1         0.00000   
87I       FLOW           87I            FLOW      1         1         0.00000   
88C       FLOW           88C            FLOW      1         1         0.00000   
89C       FLOW           89C            FLOW      1         1         0.00000   
90C       FLOW           90C            FLOW      1         1         0.00000   
90I       FLOW           90I            FLOW      1         1         0.00000   
91C       FLOW           91C            FLOW      1         1         0.00000   
91I       FLOW           91I            FLOW      1         1         0.00000   
91Ib      FLOW           91Ib           FLOW      1         1         0.00000   
92C       FLOW           92C            FLOW      1         1         0.00000   
93C       FLOW           93C            FLOW      1         1         0.00000   
94C       FLOW           94C            FLOW      1         1         0.00000   
94I       FLOW           94I            FLOW      1         1         0.00000   
95C       FLOW           95C            FLOW      1         1         0.00000   
96I       FLOW           96I            FLOW      1         1         0.00000   
96Ib      FLOW           96Ib           FLOW      1         1         0.00000   
97C       FLOW           97C            FLOW      1         1         0.00000   
97I       FLOW           97I            FLOW      1         1         0.00000   
98C       FLOW           98C            FLOW      1         1         0.00000   
98I       FLOW           98I            FLOW      1         1         0.00000   
99C       FLOW           99C            FLOW      1         1         0.00000   
99I       FLOW           99I            FLOW      1         1         0.00000   
100C      FLOW           100C           FLOW      1         1         0.00000   
100I      FLOW           100I           FLOW      1         1         0.00000   
101C      FLOW           101C           FLOW      1         1         0.00000   
102C      FLOW           102C           FLOW      1         1         0.00000   
103C      FLOW           103C           FLOW      1         1         0.00000   
104C      FLOW           104C           FLOW      1         1         0.00000   
105C      FLOW           105C           FLOW      1         1         0.00000   
106C      FLOW           106C           FLOW      1         1         0.00000   
107C      FLOW           107C           FLOW      1         1         0.00000   
108C      FLOW           108C           FLOW      1         1         0.00000   

[TIMESERIES]
;;Name    Date      Time      Value     
;;------- --------- --------- ---------
1C                  0:00      0.600
1C                  0:03      0.973
1C                  0:06      1.892
1C                  0:09      3.119
1C                  0:12      4.483
1C                  0:15      5.860
1C                  0:18      7.166
1C                  0:21      8.347
1C                  0:24      9.371
1C                  0:27      10.223
1C                  0:30      10.899
1C                  0:33      11.403
1C                  0:36      11.745
1C                  0:39      11.939
1C                  0:42      12.000
1C                  0:45      11.944
1C                  0:48      11.790
1C                  0:51      11.550
1C                  0:54      11.242
1C                  0:57      10.879
1C                  1:00      10.473
1C                  1:03      10.036
1C                  1:06      9.578
1C                  1:09      9.106
1C                  1:12      8.629
1C                  1:15      8.152
1C                  1:18      7.681
1C                  1:21      7.220
1C                  1:24      6.771
1C                  1:27      6.338
1C                  1:30      5.924
1C                  1:33      5.528
1C                  1:36      5.152
1C                  1:39      4.796
1C                  1:42      4.462
1C                  1:45      4.147
1C                  1:48      3.853
1C                  1:51      3.579
1C                  1:54      3.324
1C                  1:57      3.087
1C                  2:00      2.868
1C                  2:03      2.666
1C                  2:06      2.479
1C                  2:09      2.308
1C                  2:12      2.150
1C                  2:15      2.006
1C                  2:18      1.873
1C                  2:21      1.752
1C                  2:24      1.641
1C                  2:27      1.541
1C                  2:30      1.450
1C                  2:33      1.366
1C                  2:36      1.290
1C                  2:39      1.222
1C                  2:42      1.159
1C                  2:45      1.103
1C                  2:48      1.052
1C                  2:51      1.006
1C                  2:54      0.965
1C                  2:57      0.927
1C                  3:00      0.893
2C                  0:00      0.825
2C                  0:03      1.337
2C                  0:06      2.602
2C                  0:09      4.290
2C                  0:12      6.165
2C                  0:15      8.057
2C                  0:18      9.853
2C                  0:21      11.477
2C                  0:24      12.886
2C                  0:27      14.057
2C                  0:30      14.987
2C                  0:33      15.680
2C                  0:36      16.150
2C                  0:39      16.416
2C                  0:42      16.500
2C                  0:45      16.424
2C                  0:48      16.210
2C                  0:51      15.882
2C                  0:54      15.458
2C                  0:57      14.959
2C                  1:00      14.400
2C                  1:03      13.800
2C                  1:06      13.169
2C                  1:09      12.521
2C                  1:12      11.864
2C                  1:15      11.209
2C                  1:18      10.562
2C                  1:21      9.927
2C                  1:24      9.310
2C                  1:27      8.716
2C                  1:30      8.145
2C                  1:33      7.601
2C                  1:36      7.084
2C                  1:39      6.595
2C                  1:42      6.135
2C                  1:45      5.702
2C                  1:48      5.298
2C                  1:51      4.921
2C                  1:54      4.571
2C                  1:57      4.245
2C                  2:00      3.943
2C                  2:03      3.666
2C                  2:06      3.409
2C                  2:09      3.173
2C                  2:12      2.956
2C                  2:15      2.757
2C                  2:18      2.575
2C                  2:21      2.409
2C                  2:24      2.257
2C                  2:27      2.119
2C                  2:30      1.993
2C                  2:33      1.879
2C                  2:36      1.774
2C                  2:39      1.680
2C                  2:42      1.594
2C                  2:45      1.517
2C                  2:48      1.446
2C                  2:51      1.383
2C                  2:54      1.326
2C                  2:57      1.274
2C                  3:00      1.228
2I                  0:00      0.275
2I                  0:03      0.446
2I                  0:06      0.867
2I                  0:09      1.430
2I                  0:12      2.055
2I                  0:15      2.686
2I                  0:18      3.284
2I                  0:21      3.826
2I                  0:24      4.295
2I                  0:27      4.686
2I                  0:30      4.995
2I                  0:33      5.226
2I                  0:36      5.383
2I                  0:39      5.472
2I                  0:42      5.500
2I                  0:45      5.474
2I                  0:48      5.404
2I                  0:51      5.294
2I                  0:54      5.152
2I                  0:57      4.986
2I                  1:00      4.800
2I                  1:03      4.600
2I                  1:06      4.389
2I                  1:09      4.173
2I                  1:12      3.955
2I                  1:15      3.736
2I                  1:18      3.521
2I                  1:21      3.309
2I                  1:24      3.103
2I                  1:27      2.905
2I                  1:30      2.715
2I                  1:33      2.534
2I                  1:36      2.361
2I                  1:39      2.199
2I                  1:42      2.045
2I                  1:45      1.901
2I                  1:48      1.766
2I                  1:51      1.641
2I                  1:54      1.524
2I                  1:57      1.415
2I                  2:00      1.315
2I                  2:03      1.222
2I                  2:06      1.137
2I                  2:09      1.058
2I                  2:12      0.986
2I                  2:15      0.919
2I                  2:18      0.859
2I                  2:21      0.803
2I                  2:24      0.752
2I                  2:27      0.707
2I                  2:30      0.664
2I                  2:33      0.626
2I                  2:36      0.592
2I                  2:39      0.560
2I                  2:42      0.531
2I                  2:45      0.505
2I                  2:48      0.482
2I                  2:51      0.461
2I                  2:54      0.442
2I                  2:57      0.425
2I                  3:00      0.409
3C                  0:00      0.000
3C                  0:03      0.000
3C                  0:06      0.000
3C                  0:09      0.000
3C                  0:12      0.000
3C                  0:15      0.000
3C                  0:18      0.000
3C                  0:21      0.000
3C                  0:24      0.000
3C                  0:27      0.000
3C                  0:30      0.000
3C                  0:33      0.000
3C                  0:36      0.000
3C                  0:39      0.000
3C                  0:42      0.000
3C                  0:45      0.000
3C                  0:48      0.000
3C                  0:51      0.000
3C                  0:54      0.000
3C                  0:57      0.000
3C                  1:00      0.000
3C                  1:03      0.000
3C                  1:06      0.000
3C                  1:09      0.000
3C                  1:12      0.000
3C                  1:15      0.000
3C                  1:18      0.000
3C                  1:21      0.000
3C                  1:24      0.000
3C                  1:27      0.000
3C                  1:30      0.000
3C                  1:33      0.000
3C                  1:36      0.000
3C                  1:39      0.000
3C                  1:42      0.000
3C                  1:45      0.000
3C                  1:48      0.000
3C                  1:51      0.000
3C                  1:54      0.000
3C                  1:57      0.000
3C                  2:00      0.000
3C                  2:03      0.000
3C                  2:06      0.000
3C                  2:09      0.000
3C                  2:12      0.000
3C                  2:15      0.000
3C                  2:18      0.000
3C                  2:21      0.000
3C                  2:24      0.000
3C                  2:27      0.000
3C                  2:30      0.000
3C                  2:33      0.000
3C                  2:36      0.000
3C                  2:39      0.000
3C                  2:42      0.000
3C                  2:45      0.000
3C                  2:48      0.000
3C                  2:51      0.000
3C                  2:54      0.000
3C                  2:57      0.000
3C                  3:00      0.000
3I                  0:00      1.100
3I                  0:03      1.783
3I                  0:06      3.469
3I                  0:09      5.720
3I                  0:12      8.219
3I                  0:15      10.743
3I                  0:18      13.137
3I                  0:21      15.303
3I                  0:24      17.181
3I                  0:27      18.744
3I                  0:30      19.983
3I                  0:33      20.906
3I                  0:36      21.533
3I                  0:39      21.889
3I                  0:42      22.000
3I                  0:45      21.898
3I                  0:48      21.614
3I                  0:51      21.175
3I                  0:54      20.610
3I                  0:57      19.945
3I                  1:00      19.201
3I                  1:03      18.399
3I                  1:06      17.559
3I                  1:09      16.695
3I                  1:12      15.819
3I                  1:15      14.945
3I                  1:18      14.082
3I                  1:21      13.236
3I                  1:24      12.414
3I                  1:27      11.621
3I                  1:30      10.860
3I                  1:33      10.134
3I                  1:36      9.445
3I                  1:39      8.793
3I                  1:42      8.180
3I                  1:45      7.604
3I                  1:48      7.064
3I                  1:51      6.561
3I                  1:54      6.094
3I                  1:57      5.660
3I                  2:00      5.258
3I                  2:03      4.887
3I                  2:06      4.545
3I                  2:09      4.231
3I                  2:12      3.942
3I                  2:15      3.676
3I                  2:18      3.434
3I                  2:21      3.212
3I                  2:24      3.010
3I                  2:27      2.825
3I                  2:30      2.657
3I                  2:33      2.505
3I                  2:36      2.365
3I                  2:39      2.240
3I                  2:42      2.126
3I                  2:45      2.022
3I                  2:48      1.929
3I                  2:51      1.845
3I                  2:54      1.768
3I                  2:57      1.700
3I                  3:00      1.637
4C                  0:00      0.000
4C                  0:03      0.000
4C                  0:06      0.000
4C                  0:09      0.000
4C                  0:12      0.000
4C                  0:15      0.000
4C                  0:18      0.000
4C                  0:21      0.000
4C                  0:24      0.000
4C                  0:27      0.000
4C                  0:30      0.000
4C                  0:33      0.000
4C                  0:36      0.000
4C                  0:39      0.000
4C                  0:42      0.000
4C                  0:45      0.000
4C                  0:48      0.000
4C                  0:51      0.000
4C                  0:54      0.000
4C                  0:57      0.000
4C                  1:00      0.000
4C                  1:03      0.000
4C                  1:06      0.000
4C                  1:09      0.000
4C                  1:12      0.000
4C                  1:15      0.000
4C                  1:18      0.000
4C                  1:21      0.000
4C                  1:24      0.000
4C                  1:27      0.000
4C                  1:30      0.000
4C                  1:33      0.000
4C                  1:36      0.000
4C                  1:39      0.000
4C                  1:42      0.000
4C                  1:45      0.000
4C                  1:48      0.000
4C                  1:51      0.000
4C                  1:54      0.000
4C                  1:57      0.000
4C                  2:00      0.000
4C                  2:03      0.000
4C                  2:06      0.000
4C                  2:09      0.000
4C                  2:12      0.000
4C                  2:15      0.000
4C                  2:18      0.000
4C                  2:21      0.000
4C                  2:24      0.000
4C                  2:27      0.000
4C                  2:30      0.000
4C                  2:33      0.000
4C                  2:36      0.000
4C                  2:39      0.000
4C                  2:42      0.000
4C                  2:45      0.000
4C                  2:48      0.000
4C                  2:51      0.000
4C                  2:54      0.000
4C                  2:57      0.000
4C                  3:00      0.000
4I                  0:00      1.050
4I                  0:03      1.702
4I                  0:06      3.311
4I                  0:09      5.460
4I                  0:12      7.846
4I                  0:15      10.255
4I                  0:18      12.540
4I                  0:21      14.607
4I                  0:24      16.401
4I                  0:27      17.892
4I                  0:30      19.074
4I                  0:33      19.956
4I                  0:36      20.555
4I                  0:39      20.893
4I                  0:42      21.000
4I                  0:45      20.903
4I                  0:48      20.631
4I                  0:51      20.213
4I                  0:54      19.674
4I                  0:57      19.038
4I                  1:00      18.328
4I                  1:03      17.563
4I                  1:06      16.761
4I                  1:09      15.935
4I                  1:12      15.101
4I                  1:15      14.266
4I                  1:18      13.441
4I                  1:21      12.634
4I                  1:24      11.850
4I                  1:27      11.092
4I                  1:30      10.367
4I                  1:33      9.674
4I                  1:36      9.016
4I                  1:39      8.393
4I                  1:42      7.808
4I                  1:45      7.258
4I                  1:48      6.744
4I                  1:51      6.263
4I                  1:54      5.817
4I                  1:57      5.403
4I                  2:00      5.019
4I                  2:03      4.665
4I                  2:06      4.338
4I                  2:09      4.038
4I                  2:12      3.763
4I                  2:15      3.510
4I                  2:18      3.277
4I                  2:21      3.066
4I                  2:24      2.873
4I                  2:27      2.696
4I                  2:30      2.537
4I                  2:33      2.390
4I                  2:36      2.258
4I                  2:39      2.138
4I                  2:42      2.029
4I                  2:45      1.931
4I                  2:48      1.841
4I                  2:51      1.760
4I                  2:54      1.688
4I                  2:57      1.622
4I                  3:00      1.563
5C                  0:00      0.800
5C                  0:03      1.296
5C                  0:06      2.522
5C                  0:09      4.160
5C                  0:12      5.978
5C                  0:15      7.813
5C                  0:18      9.555
5C                  0:21      11.130
5C                  0:24      12.495
5C                  0:27      13.632
5C                  0:30      14.533
5C                  0:33      15.204
5C                  0:36      15.661
5C                  0:39      15.919
5C                  0:42      16.000
5C                  0:45      15.926
5C                  0:48      15.719
5C                  0:51      15.400
5C                  0:54      14.989
5C                  0:57      14.505
5C                  1:00      13.964
5C                  1:03      13.382
5C                  1:06      12.770
5C                  1:09      12.142
5C                  1:12      11.505
5C                  1:15      10.870
5C                  1:18      10.241
5C                  1:21      9.626
5C                  1:24      9.028
5C                  1:27      8.451
5C                  1:30      7.899
5C                  1:33      7.370
5C                  1:36      6.869
5C                  1:39      6.395
5C                  1:42      5.949
5C                  1:45      5.530
5C                  1:48      5.138
5C                  1:51      4.772
5C                  1:54      4.432
5C                  1:57      4.117
5C                  2:00      3.824
5C                  2:03      3.554
5C                  2:06      3.305
5C                  2:09      3.076
5C                  2:12      2.866
5C                  2:15      2.674
5C                  2:18      2.498
5C                  2:21      2.336
5C                  2:24      2.189
5C                  2:27      2.054
5C                  2:30      1.933
5C                  2:33      1.821
5C                  2:36      1.720
5C                  2:39      1.629
5C                  2:42      1.546
5C                  2:45      1.471
5C                  2:48      1.403
5C                  2:51      1.341
5C                  2:54      1.286
5C                  2:57      1.236
5C                  3:00      1.191
6C                  0:00      0.600
6C                  0:03      0.973
6C                  0:06      1.892
6C                  0:09      3.119
6C                  0:12      4.483
6C                  0:15      5.860
6C                  0:18      7.166
6C                  0:21      8.347
6C                  0:24      9.371
6C                  0:27      10.223
6C                  0:30      10.899
6C                  0:33      11.403
6C                  0:36      11.745
6C                  0:39      11.939
6C                  0:42      12.000
6C                  0:45      11.944
6C                  0:48      11.790
6C                  0:51      11.550
6C                  0:54      11.242
6C                  0:57      10.879
6C                  1:00      10.473
6C                  1:03      10.036
6C                  1:06      9.578
6C                  1:09      9.106
6C                  1:12      8.629
6C                  1:15      8.152
6C                  1:18      7.681
6C                  1:21      7.220
6C                  1:24      6.771
6C                  1:27      6.338
6C                  1:30      5.924
6C                  1:33      5.528
6C                  1:36      5.152
6C                  1:39      4.796
6C                  1:42      4.462
6C                  1:45      4.147
6C                  1:48      3.853
6C                  1:51      3.579
6C                  1:54      3.324
6C                  1:57      3.087
6C                  2:00      2.868
6C                  2:03      2.666
6C                  2:06      2.479
6C                  2:09      2.308
6C                  2:12      2.150
6C                  2:15      2.006
6C                  2:18      1.873
6C                  2:21      1.752
6C                  2:24      1.641
6C                  2:27      1.541
6C                  2:30      1.450
6C                  2:33      1.366
6C                  2:36      1.290
6C                  2:39      1.222
6C                  2:42      1.159
6C                  2:45      1.103
6C                  2:48      1.052
6C                  2:51      1.006
6C                  2:54      0.965
6C                  2:57      0.927
6C                  3:00      0.893
7C                  0:00      0.550
7C                  0:03      0.891
7C                  0:06      1.734
7C                  0:09      2.860
7C                  0:12      4.109
7C                  0:15      5.372
7C                  0:18      6.569
7C                  0:21      7.652
7C                  0:24      8.591
7C                  0:27      9.372
7C                  0:30      9.991
7C                  0:33      10.453
7C                  0:36      10.767
7C                  0:39      10.944
7C                  0:42      11.000
7C                  0:45      10.949
7C                  0:48      10.807
7C                  0:51      10.588
7C                  0:54      10.305
7C                  0:57      9.973
7C                  1:00      9.601
7C                  1:03      9.200
7C                  1:06      8.780
7C                  1:09      8.347
7C                  1:12      7.910
7C                  1:15      7.473
7C                  1:18      7.041
7C                  1:21      6.618
7C                  1:24      6.207
7C                  1:27      5.811
7C                  1:30      5.430
7C                  1:33      5.067
7C                  1:36      4.723
7C                  1:39      4.396
7C                  1:42      4.090
7C                  1:45      3.801
7C                  1:48      3.532
7C                  1:51      3.281
7C                  1:54      3.047
7C                  1:57      2.830
7C                  2:00      2.629
7C                  2:03      2.443
7C                  2:06      2.272
7C                  2:09      2.115
7C                  2:12      1.970
7C                  2:15      1.838
7C                  2:18      1.717
7C                  2:21      1.606
7C                  2:24      1.505
7C                  2:27      1.413
7C                  2:30      1.329
7C                  2:33      1.252
7C                  2:36      1.183
7C                  2:39      1.120
7C                  2:42      1.063
7C                  2:45      1.011
7C                  2:48      0.965
7C                  2:51      0.922
7C                  2:54      0.884
7C                  2:57      0.850
7C                  3:00      0.819
8C                  0:00      0.750
8C                  0:03      1.216
8C                  0:06      2.365
8C                  0:09      3.900
8C                  0:12      5.604
8C                  0:15      7.324
8C                  0:18      8.957
8C                  0:21      10.434
8C                  0:24      11.714
8C                  0:27      12.780
8C                  0:30      13.624
8C                  0:33      14.254
8C                  0:36      14.681
8C                  0:39      14.924
8C                  0:42      15.000
8C                  0:45      14.931
8C                  0:48      14.736
8C                  0:51      14.438
8C                  0:54      14.053
8C                  0:57      13.598
8C                  1:00      13.091
8C                  1:03      12.545
8C                  1:06      11.972
8C                  1:09      11.383
8C                  1:12      10.786
8C                  1:15      10.190
8C                  1:18      9.601
8C                  1:21      9.024
8C                  1:24      8.464
8C                  1:27      7.923
8C                  1:30      7.404
8C                  1:33      6.910
8C                  1:36      6.440
8C                  1:39      5.995
8C                  1:42      5.577
8C                  1:45      5.184
8C                  1:48      4.816
8C                  1:51      4.474
8C                  1:54      4.155
8C                  1:57      3.859
8C                  2:00      3.585
8C                  2:03      3.332
8C                  2:06      3.099
8C                  2:09      2.885
8C                  2:12      2.688
8C                  2:15      2.506
8C                  2:18      2.341
8C                  2:21      2.190
8C                  2:24      2.052
8C                  2:27      1.926
8C                  2:30      1.812
8C                  2:33      1.708
8C                  2:36      1.613
8C                  2:39      1.527
8C                  2:42      1.450
8C                  2:45      1.379
8C                  2:48      1.315
8C                  2:51      1.258
8C                  2:54      1.206
8C                  2:57      1.159
8C                  3:00      1.117
9C                  0:00      0.650
9C                  0:03      1.054
9C                  0:06      2.050
9C                  0:09      3.380
9C                  0:12      4.857
9C                  0:15      6.348
9C                  0:18      7.763
9C                  0:21      9.043
9C                  0:24      10.152
9C                  0:27      11.075
9C                  0:30      11.808
9C                  0:33      12.354
9C                  0:36      12.724
9C                  0:39      12.934
9C                  0:42      13.000
9C                  0:45      12.940
9C                  0:48      12.772
9C                  0:51      12.512
9C                  0:54      12.179
9C                  0:57      11.786
9C                  1:00      11.346
9C                  1:03      10.873
9C                  1:06      10.376
9C                  1:09      9.865
9C                  1:12      9.348
9C                  1:15      8.832
9C                  1:18      8.321
9C                  1:21      7.821
9C                  1:24      7.335
9C                  1:27      6.867
9C                  1:30      6.418
9C                  1:33      5.989
9C                  1:36      5.581
9C                  1:39      5.196
9C                  1:42      4.833
9C                  1:45      4.493
9C                  1:48      4.175
9C                  1:51      3.877
9C                  1:54      3.601
9C                  1:57      3.345
9C                  2:00      3.107
9C                  2:03      2.888
9C                  2:06      2.686
9C                  2:09      2.500
9C                  2:12      2.329
9C                  2:15      2.172
9C                  2:18      2.029
9C                  2:21      1.898
9C                  2:24      1.778
9C                  2:27      1.669
9C                  2:30      1.570
9C                  2:33      1.480
9C                  2:36      1.398
9C                  2:39      1.323
9C                  2:42      1.256
9C                  2:45      1.195
9C                  2:48      1.140
9C                  2:51      1.090
9C                  2:54      1.045
9C                  2:57      1.004
9C                  3:00      0.968
10C                 0:00      0.650
10C                 0:03      1.054
10C                 0:06      2.050
10C                 0:09      3.380
10C                 0:12      4.857
10C                 0:15      6.348
10C                 0:18      7.763
10C                 0:21      9.043
10C                 0:24      10.152
10C                 0:27      11.075
10C                 0:30      11.808
10C                 0:33      12.354
10C                 0:36      12.724
10C                 0:39      12.934
10C                 0:42      13.000
10C                 0:45      12.940
10C                 0:48      12.772
10C                 0:51      12.512
10C                 0:54      12.179
10C                 0:57      11.786
10C                 1:00      11.346
10C                 1:03      10.873
10C                 1:06      10.376
10C                 1:09      9.865
10C                 1:12      9.348
10C                 1:15      8.832
10C                 1:18      8.321
10C                 1:21      7.821
10C                 1:24      7.335
10C                 1:27      6.867
10C                 1:30      6.418
10C                 1:33      5.989
10C                 1:36      5.581
10C                 1:39      5.196
10C                 1:42      4.833
10C                 1:45      4.493
10C                 1:48      4.175
10C                 1:51      3.877
10C                 1:54      3.601
10C                 1:57      3.345
10C                 2:00      3.107
10C                 2:03      2.888
10C                 2:06      2.686
10C                 2:09      2.500
10C                 2:12      2.329
10C                 2:15      2.172
10C                 2:18      2.029
10C                 2:21      1.898
10C                 2:24      1.778
10C                 2:27      1.669
10C                 2:30      1.570
10C                 2:33      1.480
10C                 2:36      1.398
10C                 2:39      1.323
10C                 2:42      1.256
10C                 2:45      1.195
10C                 2:48      1.140
10C                 2:51      1.090
10C                 2:54      1.045
10C                 2:57      1.004
10C                 3:00      0.968
11C                 0:00      0.900
11C                 0:03      1.459
11C                 0:06      2.838
11C                 0:09      4.679
11C                 0:12      6.725
11C                 0:15      8.790
11C                 0:18      10.748
11C                 0:21      12.521
11C                 0:24      14.057
11C                 0:27      15.335
11C                 0:30      16.349
11C                 0:33      17.105
11C                 0:36      17.618
11C                 0:39      17.909
11C                 0:42      18.000
11C                 0:45      17.917
11C                 0:48      17.684
11C                 0:51      17.325
11C                 0:54      16.863
11C                 0:57      16.319
11C                 1:00      15.710
11C                 1:03      15.054
11C                 1:06      14.367
11C                 1:09      13.659
11C                 1:12      12.943
11C                 1:15      12.228
11C                 1:18      11.521
11C                 1:21      10.829
11C                 1:24      10.157
11C                 1:27      9.508
11C                 1:30      8.886
11C                 1:33      8.292
11C                 1:36      7.728
11C                 1:39      7.194
11C                 1:42      6.692
11C                 1:45      6.221
11C                 1:48      5.780
11C                 1:51      5.369
11C                 1:54      4.986
11C                 1:57      4.631
11C                 2:00      4.303
11C                 2:03      3.998
11C                 2:06      3.719
11C                 2:09      3.462
11C                 2:12      3.225
11C                 2:15      3.008
11C                 2:18      2.809
11C                 2:21      2.628
11C                 2:24      2.462
11C                 2:27      2.312
11C                 2:30      2.174
11C                 2:33      2.049
11C                 2:36      1.935
11C                 2:39      1.833
11C                 2:42      1.739
11C                 2:45      1.655
11C                 2:48      1.578
11C                 2:51      1.509
11C                 2:54      1.446
11C                 2:57      1.391
11C                 3:00      1.339
12C                 0:00      0.700
12C                 0:03      1.135
12C                 0:06      2.207
12C                 0:09      3.639
12C                 0:12      5.231
12C                 0:15      6.837
12C                 0:18      8.360
12C                 0:21      9.739
12C                 0:24      10.934
12C                 0:27      11.928
12C                 0:30      12.716
12C                 0:33      13.304
12C                 0:36      13.703
12C                 0:39      13.929
12C                 0:42      14.000
12C                 0:45      13.935
12C                 0:48      13.754
12C                 0:51      13.475
12C                 0:54      13.116
12C                 0:57      12.692
12C                 1:00      12.219
12C                 1:03      11.709
12C                 1:06      11.174
12C                 1:09      10.623
12C                 1:12      10.067
12C                 1:15      9.511
12C                 1:18      8.961
12C                 1:21      8.423
12C                 1:24      7.900
12C                 1:27      7.395
12C                 1:30      6.911
12C                 1:33      6.449
12C                 1:36      6.011
12C                 1:39      5.596
12C                 1:42      5.205
12C                 1:45      4.838
12C                 1:48      4.495
12C                 1:51      4.176
12C                 1:54      3.878
12C                 1:57      3.602
12C                 2:00      3.346
12C                 2:03      3.110
12C                 2:06      2.893
12C                 2:09      2.692
12C                 2:12      2.508
12C                 2:15      2.340
12C                 2:18      2.185
12C                 2:21      2.044
12C                 2:24      1.915
12C                 2:27      1.798
12C                 2:30      1.691
12C                 2:33      1.593
12C                 2:36      1.506
12C                 2:39      1.425
12C                 2:42      1.353
12C                 2:45      1.287
12C                 2:48      1.228
12C                 2:51      1.173
12C                 2:54      1.125
12C                 2:57      1.081
12C                 3:00      1.042
13C                 0:00      0.637
13C                 0:03      1.034
13C                 0:06      2.010
13C                 0:09      3.314
13C                 0:12      4.763
13C                 0:15      6.226
13C                 0:18      7.614
13C                 0:21      8.869
13C                 0:24      9.957
13C                 0:27      10.863
13C                 0:30      11.581
13C                 0:33      12.116
13C                 0:36      12.479
13C                 0:39      12.685
13C                 0:42      12.750
13C                 0:45      12.691
13C                 0:48      12.526
13C                 0:51      12.272
13C                 0:54      11.944
13C                 0:57      11.559
13C                 1:00      11.127
13C                 1:03      10.664
13C                 1:06      10.176
13C                 1:09      9.675
13C                 1:12      9.168
13C                 1:15      8.662
13C                 1:18      8.161
13C                 1:21      7.671
13C                 1:24      7.194
13C                 1:27      6.735
13C                 1:30      6.294
13C                 1:33      5.873
13C                 1:36      5.474
13C                 1:39      5.096
13C                 1:42      4.740
13C                 1:45      4.407
13C                 1:48      4.094
13C                 1:51      3.803
13C                 1:54      3.531
13C                 1:57      3.280
13C                 2:00      3.047
13C                 2:03      2.833
13C                 2:06      2.634
13C                 2:09      2.451
13C                 2:12      2.284
13C                 2:15      2.131
13C                 2:18      1.990
13C                 2:21      1.861
13C                 2:24      1.744
13C                 2:27      1.637
13C                 2:30      1.540
13C                 2:33      1.452
13C                 2:36      1.371
13C                 2:39      1.298
13C                 2:42      1.232
13C                 2:45      1.172
13C                 2:48      1.118
13C                 2:51      1.069
13C                 2:54      1.024
13C                 2:57      0.985
13C                 3:00      0.949
13I                 0:00      0.212
13I                 0:03      0.344
13I                 0:06      0.670
13I                 0:09      1.105
13I                 0:12      1.588
13I                 0:15      2.075
13I                 0:18      2.538
13I                 0:21      2.957
13I                 0:24      3.319
13I                 0:27      3.621
13I                 0:30      3.860
13I                 0:33      4.038
13I                 0:36      4.160
13I                 0:39      4.229
13I                 0:42      4.250
13I                 0:45      4.231
13I                 0:48      4.176
13I                 0:51      4.090
13I                 0:54      3.982
13I                 0:57      3.853
13I                 1:00      3.709
13I                 1:03      3.554
13I                 1:06      3.392
13I                 1:09      3.225
13I                 1:12      3.056
13I                 1:15      2.887
13I                 1:18      2.720
13I                 1:21      2.557
13I                 1:24      2.398
13I                 1:27      2.245
13I                 1:30      2.098
13I                 1:33      1.958
13I                 1:36      1.825
13I                 1:39      1.698
13I                 1:42      1.580
13I                 1:45      1.469
13I                 1:48      1.365
13I                 1:51      1.268
13I                 1:54      1.177
13I                 1:57      1.093
13I                 2:00      1.016
13I                 2:03      0.944
13I                 2:06      0.878
13I                 2:09      0.817
13I                 2:12      0.761
13I                 2:15      0.710
13I                 2:18      0.663
13I                 2:21      0.621
13I                 2:24      0.582
13I                 2:27      0.546
13I                 2:30      0.513
13I                 2:33      0.484
13I                 2:36      0.457
13I                 2:39      0.432
13I                 2:42      0.410
13I                 2:45      0.391
13I                 2:48      0.372
13I                 2:51      0.356
13I                 2:54      0.342
13I                 2:57      0.329
13I                 3:00      0.317
14C                 0:00      0.650
14C                 0:03      1.054
14C                 0:06      2.050
14C                 0:09      3.380
14C                 0:12      4.857
14C                 0:15      6.348
14C                 0:18      7.763
14C                 0:21      9.043
14C                 0:24      10.152
14C                 0:27      11.075
14C                 0:30      11.808
14C                 0:33      12.354
14C                 0:36      12.724
14C                 0:39      12.934
14C                 0:42      13.000
14C                 0:45      12.940
14C                 0:48      12.772
14C                 0:51      12.512
14C                 0:54      12.179
14C                 0:57      11.786
14C                 1:00      11.346
14C                 1:03      10.873
14C                 1:06      10.376
14C                 1:09      9.865
14C                 1:12      9.348
14C                 1:15      8.832
14C                 1:18      8.321
14C                 1:21      7.821
14C                 1:24      7.335
14C                 1:27      6.867
14C                 1:30      6.418
14C                 1:33      5.989
14C                 1:36      5.581
14C                 1:39      5.196
14C                 1:42      4.833
14C                 1:45      4.493
14C                 1:48      4.175
14C                 1:51      3.877
14C                 1:54      3.601
14C                 1:57      3.345
14C                 2:00      3.107
14C                 2:03      2.888
14C                 2:06      2.686
14C                 2:09      2.500
14C                 2:12      2.329
14C                 2:15      2.172
14C                 2:18      2.029
14C                 2:21      1.898
14C                 2:24      1.778
14C                 2:27      1.669
14C                 2:30      1.570
14C                 2:33      1.480
14C                 2:36      1.398
14C                 2:39      1.323
14C                 2:42      1.256
14C                 2:45      1.195
14C                 2:48      1.140
14C                 2:51      1.090
14C                 2:54      1.045
14C                 2:57      1.004
14C                 3:00      0.968
15C                 0:00      0.650
15C                 0:03      1.054
15C                 0:06      2.050
15C                 0:09      3.380
15C                 0:12      4.857
15C                 0:15      6.348
15C                 0:18      7.763
15C                 0:21      9.043
15C                 0:24      10.152
15C                 0:27      11.075
15C                 0:30      11.808
15C                 0:33      12.354
15C                 0:36      12.724
15C                 0:39      12.934
15C                 0:42      13.000
15C                 0:45      12.940
15C                 0:48      12.772
15C                 0:51      12.512
15C                 0:54      12.179
15C                 0:57      11.786
15C                 1:00      11.346
15C                 1:03      10.873
15C                 1:06      10.376
15C                 1:09      9.865
15C                 1:12      9.348
15C                 1:15      8.832
15C                 1:18      8.321
15C                 1:21      7.821
15C                 1:24      7.335
15C                 1:27      6.867
15C                 1:30      6.418
15C                 1:33      5.989
15C                 1:36      5.581
15C                 1:39      5.196
15C                 1:42      4.833
15C                 1:45      4.493
15C                 1:48      4.175
15C                 1:51      3.877
15C                 1:54      3.601
15C                 1:57      3.345
15C                 2:00      3.107
15C                 2:03      2.888
15C                 2:06      2.686
15C                 2:09      2.500
15C                 2:12      2.329
15C                 2:15      2.172
15C                 2:18      2.029
15C                 2:21      1.898
15C                 2:24      1.778
15C                 2:27      1.669
15C                 2:30      1.570
15C                 2:33      1.480
15C                 2:36      1.398
15C                 2:39      1.323
15C                 2:42      1.256
15C                 2:45      1.195
15C                 2:48      1.140
15C                 2:51      1.090
15C                 2:54      1.045
15C                 2:57      1.004
15C                 3:00      0.968
16C                 0:00      0.487
16C                 0:03      0.790
16C                 0:06      1.537
16C                 0:09      2.535
16C                 0:12      3.643
16C                 0:15      4.761
16C                 0:18      5.822
16C                 0:21      6.782
16C                 0:24      7.614
16C                 0:27      8.307
16C                 0:30      8.856
16C                 0:33      9.265
16C                 0:36      9.543
16C                 0:39      9.700
16C                 0:42      9.750
16C                 0:45      9.705
16C                 0:48      9.579
16C                 0:51      9.384
16C                 0:54      9.134
16C                 0:57      8.839
16C                 1:00      8.509
16C                 1:03      8.155
16C                 1:06      7.782
16C                 1:09      7.399
16C                 1:12      7.011
16C                 1:15      6.623
16C                 1:18      6.241
16C                 1:21      5.866
16C                 1:24      5.502
16C                 1:27      5.150
16C                 1:30      4.813
16C                 1:33      4.492
16C                 1:36      4.186
16C                 1:39      3.897
16C                 1:42      3.625
16C                 1:45      3.369
16C                 1:48      3.131
16C                 1:51      2.908
16C                 1:54      2.700
16C                 1:57      2.509
16C                 2:00      2.330
16C                 2:03      2.166
16C                 2:06      2.014
16C                 2:09      1.875
16C                 2:12      1.747
16C                 2:15      1.629
16C                 2:18      1.522
16C                 2:21      1.423
16C                 2:24      1.334
16C                 2:27      1.252
16C                 2:30      1.177
16C                 2:33      1.110
16C                 2:36      1.048
16C                 2:39      0.993
16C                 2:42      0.942
16C                 2:45      0.896
16C                 2:48      0.855
16C                 2:51      0.818
16C                 2:54      0.783
16C                 2:57      0.753
16C                 3:00      0.726
16I                 0:00      0.163
16I                 0:03      0.264
16I                 0:06      0.512
16I                 0:09      0.845
16I                 0:12      1.214
16I                 0:15      1.587
16I                 0:18      1.940
16I                 0:21      2.260
16I                 0:24      2.538
16I                 0:27      2.769
16I                 0:30      2.952
16I                 0:33      3.088
16I                 0:36      3.181
16I                 0:39      3.233
16I                 0:42      3.250
16I                 0:45      3.235
16I                 0:48      3.193
16I                 0:51      3.128
16I                 0:54      3.045
16I                 0:57      2.946
16I                 1:00      2.837
16I                 1:03      2.718
16I                 1:06      2.594
16I                 1:09      2.466
16I                 1:12      2.337
16I                 1:15      2.208
16I                 1:18      2.080
16I                 1:21      1.956
16I                 1:24      1.834
16I                 1:27      1.716
16I                 1:30      1.605
16I                 1:33      1.497
16I                 1:36      1.395
16I                 1:39      1.299
16I                 1:42      1.208
16I                 1:45      1.123
16I                 1:48      1.044
16I                 1:51      0.970
16I                 1:54      0.900
16I                 1:57      0.836
16I                 2:00      0.777
16I                 2:03      0.722
16I                 2:06      0.671
16I                 2:09      0.625
16I                 2:12      0.583
16I                 2:15      0.543
16I                 2:18      0.507
16I                 2:21      0.474
16I                 2:24      0.445
16I                 2:27      0.417
16I                 2:30      0.393
16I                 2:33      0.370
16I                 2:36      0.349
16I                 2:39      0.331
16I                 2:42      0.314
16I                 2:45      0.299
16I                 2:48      0.285
16I                 2:51      0.273
16I                 2:54      0.261
16I                 2:57      0.251
16I                 3:00      0.242
17C                 0:00      0.450
17C                 0:03      0.730
17C                 0:06      1.419
17C                 0:09      2.340
17C                 0:12      3.362
17C                 0:15      4.395
17C                 0:18      5.375
17C                 0:21      6.261
17C                 0:24      7.029
17C                 0:27      7.668
17C                 0:30      8.175
17C                 0:33      8.553
17C                 0:36      8.809
17C                 0:39      8.954
17C                 0:42      9.000
17C                 0:45      8.959
17C                 0:48      8.842
17C                 0:51      8.662
17C                 0:54      8.431
17C                 0:57      8.159
17C                 1:00      7.855
17C                 1:03      7.527
17C                 1:06      7.183
17C                 1:09      6.830
17C                 1:12      6.471
17C                 1:15      6.114
17C                 1:18      5.761
17C                 1:21      5.415
17C                 1:24      5.079
17C                 1:27      4.754
17C                 1:30      4.443
17C                 1:33      4.146
17C                 1:36      3.864
17C                 1:39      3.598
17C                 1:42      3.346
17C                 1:45      3.111
17C                 1:48      2.890
17C                 1:51      2.684
17C                 1:54      2.493
17C                 1:57      2.316
17C                 2:00      2.151
17C                 2:03      2.000
17C                 2:06      1.859
17C                 2:09      1.730
17C                 2:12      1.613
17C                 2:15      1.504
17C                 2:18      1.405
17C                 2:21      1.314
17C                 2:24      1.231
17C                 2:27      1.155
17C                 2:30      1.087
17C                 2:33      1.024
17C                 2:36      0.968
17C                 2:39      0.916
17C                 2:42      0.870
17C                 2:45      0.828
17C                 2:48      0.789
17C                 2:51      0.754
17C                 2:54      0.724
17C                 2:57      0.695
17C                 3:00      0.670
18C                 0:00      0.450
18C                 0:03      0.730
18C                 0:06      1.419
18C                 0:09      2.340
18C                 0:12      3.362
18C                 0:15      4.395
18C                 0:18      5.375
18C                 0:21      6.261
18C                 0:24      7.029
18C                 0:27      7.668
18C                 0:30      8.175
18C                 0:33      8.553
18C                 0:36      8.809
18C                 0:39      8.954
18C                 0:42      9.000
18C                 0:45      8.959
18C                 0:48      8.842
18C                 0:51      8.662
18C                 0:54      8.431
18C                 0:57      8.159
18C                 1:00      7.855
18C                 1:03      7.527
18C                 1:06      7.183
18C                 1:09      6.830
18C                 1:12      6.471
18C                 1:15      6.114
18C                 1:18      5.761
18C                 1:21      5.415
18C                 1:24      5.079
18C                 1:27      4.754
18C                 1:30      4.443
18C                 1:33      4.146
18C                 1:36      3.864
18C                 1:39      3.598
18C                 1:42      3.346
18C                 1:45      3.111
18C                 1:48      2.890
18C                 1:51      2.684
18C                 1:54      2.493
18C                 1:57      2.316
18C                 2:00      2.151
18C                 2:03      2.000
18C                 2:06      1.859
18C                 2:09      1.730
18C                 2:12      1.613
18C                 2:15      1.504
18C                 2:18      1.405
18C                 2:21      1.314
18C                 2:24      1.231
18C                 2:27      1.155
18C                 2:30      1.087
18C                 2:33      1.024
18C                 2:36      0.968
18C                 2:39      0.916
18C                 2:42      0.870
18C                 2:45      0.828
18C                 2:48      0.789
18C                 2:51      0.754
18C                 2:54      0.724
18C                 2:57      0.695
18C                 3:00      0.670
19I                 0:00      0.412
19I                 0:03      0.668
19I                 0:06      1.300
19I                 0:09      2.145
19I                 0:12      3.082
19I                 0:15      4.029
19I                 0:18      4.926
19I                 0:21      5.739
19I                 0:24      6.443
19I                 0:27      7.029
19I                 0:30      7.494
19I                 0:33      7.840
19I                 0:36      8.075
19I                 0:39      8.208
19I                 0:42      8.250
19I                 0:45      8.212
19I                 0:48      8.105
19I                 0:51      7.941
19I                 0:54      7.729
19I                 0:57      7.479
19I                 1:00      7.200
19I                 1:03      6.900
19I                 1:06      6.585
19I                 1:09      6.261
19I                 1:12      5.933
19I                 1:15      5.604
19I                 1:18      5.280
19I                 1:21      4.963
19I                 1:24      4.655
19I                 1:27      4.358
19I                 1:30      4.072
19I                 1:33      3.800
19I                 1:36      3.542
19I                 1:39      3.297
19I                 1:42      3.067
19I                 1:45      2.852
19I                 1:48      2.649
19I                 1:51      2.461
19I                 1:54      2.285
19I                 1:57      2.123
19I                 2:00      1.972
19I                 2:03      1.833
19I                 2:06      1.704
19I                 2:09      1.587
19I                 2:12      1.478
19I                 2:15      1.379
19I                 2:18      1.288
19I                 2:21      1.204
19I                 2:24      1.129
19I                 2:27      1.060
19I                 2:30      0.997
19I                 2:33      0.939
19I                 2:36      0.887
19I                 2:39      0.840
19I                 2:42      0.797
19I                 2:45      0.758
19I                 2:48      0.724
19I                 2:51      0.692
19I                 2:54      0.663
19I                 2:57      0.637
19I                 3:00      0.614
19Ib                0:00      0.138
19Ib                0:03      0.223
19Ib                0:06      0.433
19Ib                0:09      0.715
19Ib                0:12      1.028
19Ib                0:15      1.343
19Ib                0:18      1.642
19Ib                0:21      1.913
19Ib                0:24      2.147
19Ib                0:27      2.343
19Ib                0:30      2.498
19Ib                0:33      2.614
19Ib                0:36      2.692
19Ib                0:39      2.736
19Ib                0:42      2.750
19Ib                0:45      2.737
19Ib                0:48      2.701
19Ib                0:51      2.647
19Ib                0:54      2.576
19Ib                0:57      2.493
19Ib                1:00      2.400
19Ib                1:03      2.300
19Ib                1:06      2.195
19Ib                1:09      2.087
19Ib                1:12      1.978
19Ib                1:15      1.868
19Ib                1:18      1.760
19Ib                1:21      1.655
19Ib                1:24      1.552
19Ib                1:27      1.452
19Ib                1:30      1.357
19Ib                1:33      1.267
19Ib                1:36      1.181
19Ib                1:39      1.099
19Ib                1:42      1.022
19Ib                1:45      0.951
19Ib                1:48      0.883
19Ib                1:51      0.820
19Ib                1:54      0.761
19Ib                1:57      0.708
19Ib                2:00      0.657
19Ib                2:03      0.611
19Ib                2:06      0.568
19Ib                2:09      0.529
19Ib                2:12      0.492
19Ib                2:15      0.460
19Ib                2:18      0.429
19Ib                2:21      0.402
19Ib                2:24      0.376
19Ib                2:27      0.353
19Ib                2:30      0.332
19Ib                2:33      0.313
19Ib                2:36      0.295
19Ib                2:39      0.280
19Ib                2:42      0.266
19Ib                2:45      0.253
19Ib                2:48      0.241
19Ib                2:51      0.231
19Ib                2:54      0.221
19Ib                2:57      0.212
19Ib                3:00      0.204
20C                 0:00      0.000
20C                 0:03      0.000
20C                 0:06      0.000
20C                 0:09      0.000
20C                 0:12      0.000
20C                 0:15      0.000
20C                 0:18      0.000
20C                 0:21      0.000
20C                 0:24      0.000
20C                 0:27      0.000
20C                 0:30      0.000
20C                 0:33      0.000
20C                 0:36      0.000
20C                 0:39      0.000
20C                 0:42      0.000
20C                 0:45      0.000
20C                 0:48      0.000
20C                 0:51      0.000
20C                 0:54      0.000
20C                 0:57      0.000
20C                 1:00      0.000
20C                 1:03      0.000
20C                 1:06      0.000
20C                 1:09      0.000
20C                 1:12      0.000
20C                 1:15      0.000
20C                 1:18      0.000
20C                 1:21      0.000
20C                 1:24      0.000
20C                 1:27      0.000
20C                 1:30      0.000
20C                 1:33      0.000
20C                 1:36      0.000
20C                 1:39      0.000
20C                 1:42      0.000
20C                 1:45      0.000
20C                 1:48      0.000
20C                 1:51      0.000
20C                 1:54      0.000
20C                 1:57      0.000
20C                 2:00      0.000
20C                 2:03      0.000
20C                 2:06      0.000
20C                 2:09      0.000
20C                 2:12      0.000
20C                 2:15      0.000
20C                 2:18      0.000
20C                 2:21      0.000
20C                 2:24      0.000
20C                 2:27      0.000
20C                 2:30      0.000
20C                 2:33      0.000
20C                 2:36      0.000
20C                 2:39      0.000
20C                 2:42      0.000
20C                 2:45      0.000
20C                 2:48      0.000
20C                 2:51      0.000
20C                 2:54      0.000
20C                 2:57      0.000
20C                 3:00      0.000
20I                 0:00      1.000
20I                 0:03      1.621
20I                 0:06      3.153
20I                 0:09      5.199
20I                 0:12      7.472
20I                 0:15      9.767
20I                 0:18      11.943
20I                 0:21      13.912
20I                 0:24      15.620
20I                 0:27      17.040
20I                 0:30      18.166
20I                 0:33      19.006
20I                 0:36      19.576
20I                 0:39      19.898
20I                 0:42      20.000
20I                 0:45      19.907
20I                 0:48      19.649
20I                 0:51      19.250
20I                 0:54      18.737
20I                 0:57      18.131
20I                 1:00      17.456
20I                 1:03      16.727
20I                 1:06      15.963
20I                 1:09      15.177
20I                 1:12      14.382
20I                 1:15      13.587
20I                 1:18      12.802
20I                 1:21      12.033
20I                 1:24      11.286
20I                 1:27      10.565
20I                 1:30      9.873
20I                 1:33      9.213
20I                 1:36      8.586
20I                 1:39      7.994
20I                 1:42      7.436
20I                 1:45      6.912
20I                 1:48      6.422
20I                 1:51      5.965
20I                 1:54      5.540
20I                 1:57      5.146
20I                 2:00      4.780
20I                 2:03      4.443
20I                 2:06      4.132
20I                 2:09      3.846
20I                 2:12      3.583
20I                 2:15      3.342
20I                 2:18      3.122
20I                 2:21      2.920
20I                 2:24      2.736
20I                 2:27      2.568
20I                 2:30      2.416
20I                 2:33      2.276
20I                 2:36      2.151
20I                 2:39      2.036
20I                 2:42      1.933
20I                 2:45      1.839
20I                 2:48      1.754
20I                 2:51      1.677
20I                 2:54      1.607
20I                 2:57      1.545
20I                 3:00      1.488
21C                 0:00      0.500
21C                 0:03      0.810
21C                 0:06      1.577
21C                 0:09      2.600
21C                 0:12      3.736
21C                 0:15      4.883
21C                 0:18      5.971
21C                 0:21      6.956
21C                 0:24      7.809
21C                 0:27      8.520
21C                 0:30      9.083
21C                 0:33      9.503
21C                 0:36      9.788
21C                 0:39      9.949
21C                 0:42      10.000
21C                 0:45      9.954
21C                 0:48      9.825
21C                 0:51      9.625
21C                 0:54      9.368
21C                 0:57      9.066
21C                 1:00      8.727
21C                 1:03      8.364
21C                 1:06      7.981
21C                 1:09      7.588
21C                 1:12      7.191
21C                 1:15      6.793
21C                 1:18      6.401
21C                 1:21      6.016
21C                 1:24      5.643
21C                 1:27      5.282
21C                 1:30      4.936
21C                 1:33      4.606
21C                 1:36      4.293
21C                 1:39      3.997
21C                 1:42      3.718
21C                 1:45      3.456
21C                 1:48      3.211
21C                 1:51      2.982
21C                 1:54      2.770
21C                 1:57      2.572
21C                 2:00      2.390
21C                 2:03      2.221
21C                 2:06      2.066
21C                 2:09      1.923
21C                 2:12      1.792
21C                 2:15      1.671
21C                 2:18      1.561
21C                 2:21      1.460
21C                 2:24      1.368
21C                 2:27      1.284
21C                 2:30      1.208
21C                 2:33      1.139
21C                 2:36      1.075
21C                 2:39      1.018
21C                 2:42      0.966
21C                 2:45      0.919
21C                 2:48      0.877
21C                 2:51      0.839
21C                 2:54      0.803
21C                 2:57      0.772
21C                 3:00      0.745
22C                 0:00      0.000
22C                 0:03      0.000
22C                 0:06      0.000
22C                 0:09      0.000
22C                 0:12      0.000
22C                 0:15      0.000
22C                 0:18      0.000
22C                 0:21      0.000
22C                 0:24      0.000
22C                 0:27      0.000
22C                 0:30      0.000
22C                 0:33      0.000
22C                 0:36      0.000
22C                 0:39      0.000
22C                 0:42      0.000
22C                 0:45      0.000
22C                 0:48      0.000
22C                 0:51      0.000
22C                 0:54      0.000
22C                 0:57      0.000
22C                 1:00      0.000
22C                 1:03      0.000
22C                 1:06      0.000
22C                 1:09      0.000
22C                 1:12      0.000
22C                 1:15      0.000
22C                 1:18      0.000
22C                 1:21      0.000
22C                 1:24      0.000
22C                 1:27      0.000
22C                 1:30      0.000
22C                 1:33      0.000
22C                 1:36      0.000
22C                 1:39      0.000
22C                 1:42      0.000
22C                 1:45      0.000
22C                 1:48      0.000
22C                 1:51      0.000
22C                 1:54      0.000
22C                 1:57      0.000
22C                 2:00      0.000
22C                 2:03      0.000
22C                 2:06      0.000
22C                 2:09      0.000
22C                 2:12      0.000
22C                 2:15      0.000
22C                 2:18      0.000
22C                 2:21      0.000
22C                 2:24      0.000
22C                 2:27      0.000
22C                 2:30      0.000
22C                 2:33      0.000
22C                 2:36      0.000
22C                 2:39      0.000
22C                 2:42      0.000
22C                 2:45      0.000
22C                 2:48      0.000
22C                 2:51      0.000
22C                 2:54      0.000
22C                 2:57      0.000
22C                 3:00      0.000
22I                 0:00      0.950
22I                 0:03      1.540
22I                 0:06      2.995
22I                 0:09      4.939
22I                 0:12      7.098
22I                 0:15      9.278
22I                 0:18      11.346
22I                 0:21      13.216
22I                 0:24      14.838
22I                 0:27      16.188
22I                 0:30      17.258
22I                 0:33      18.055
22I                 0:36      18.597
22I                 0:39      18.904
22I                 0:42      19.000
22I                 0:45      18.913
22I                 0:48      18.666
22I                 0:51      18.288
22I                 0:54      17.800
22I                 0:57      17.225
22I                 1:00      16.582
22I                 1:03      15.890
22I                 1:06      15.165
22I                 1:09      14.418
22I                 1:12      13.662
22I                 1:15      12.908
22I                 1:18      12.162
22I                 1:21      11.431
22I                 1:24      10.721
22I                 1:27      10.037
22I                 1:30      9.380
22I                 1:33      8.752
22I                 1:36      8.157
22I                 1:39      7.595
22I                 1:42      7.064
22I                 1:45      6.566
22I                 1:48      6.101
22I                 1:51      5.667
22I                 1:54      5.263
22I                 1:57      4.888
22I                 2:00      4.542
22I                 2:03      4.221
22I                 2:06      3.925
22I                 2:09      3.654
22I                 2:12      3.404
22I                 2:15      3.175
22I                 2:18      2.966
22I                 2:21      2.774
22I                 2:24      2.599
22I                 2:27      2.440
22I                 2:30      2.295
22I                 2:33      2.163
22I                 2:36      2.043
22I                 2:39      1.935
22I                 2:42      1.836
22I                 2:45      1.746
22I                 2:48      1.666
22I                 2:51      1.593
22I                 2:54      1.527
22I                 2:57      1.468
22I                 3:00      1.414
23C                 0:00      0.487
23C                 0:03      0.790
23C                 0:06      1.537
23C                 0:09      2.535
23C                 0:12      3.643
23C                 0:15      4.761
23C                 0:18      5.822
23C                 0:21      6.782
23C                 0:24      7.614
23C                 0:27      8.307
23C                 0:30      8.856
23C                 0:33      9.265
23C                 0:36      9.543
23C                 0:39      9.700
23C                 0:42      9.750
23C                 0:45      9.705
23C                 0:48      9.579
23C                 0:51      9.384
23C                 0:54      9.134
23C                 0:57      8.839
23C                 1:00      8.509
23C                 1:03      8.155
23C                 1:06      7.782
23C                 1:09      7.399
23C                 1:12      7.011
23C                 1:15      6.623
23C                 1:18      6.241
23C                 1:21      5.866
23C                 1:24      5.502
23C                 1:27      5.150
23C                 1:30      4.813
23C                 1:33      4.492
23C                 1:36      4.186
23C                 1:39      3.897
23C                 1:42      3.625
23C                 1:45      3.369
23C                 1:48      3.131
23C                 1:51      2.908
23C                 1:54      2.700
23C                 1:57      2.509
23C                 2:00      2.330
23C                 2:03      2.166
23C                 2:06      2.014
23C                 2:09      1.875
23C                 2:12      1.747
23C                 2:15      1.629
23C                 2:18      1.522
23C                 2:21      1.423
23C                 2:24      1.334
23C                 2:27      1.252
23C                 2:30      1.177
23C                 2:33      1.110
23C                 2:36      1.048
23C                 2:39      0.993
23C                 2:42      0.942
23C                 2:45      0.896
23C                 2:48      0.855
23C                 2:51      0.818
23C                 2:54      0.783
23C                 2:57      0.753
23C                 3:00      0.726
23I                 0:00      0.163
23I                 0:03      0.264
23I                 0:06      0.512
23I                 0:09      0.845
23I                 0:12      1.214
23I                 0:15      1.587
23I                 0:18      1.940
23I                 0:21      2.260
23I                 0:24      2.538
23I                 0:27      2.769
23I                 0:30      2.952
23I                 0:33      3.088
23I                 0:36      3.181
23I                 0:39      3.233
23I                 0:42      3.250
23I                 0:45      3.235
23I                 0:48      3.193
23I                 0:51      3.128
23I                 0:54      3.045
23I                 0:57      2.946
23I                 1:00      2.837
23I                 1:03      2.718
23I                 1:06      2.594
23I                 1:09      2.466
23I                 1:12      2.337
23I                 1:15      2.208
23I                 1:18      2.080
23I                 1:21      1.956
23I                 1:24      1.834
23I                 1:27      1.716
23I                 1:30      1.605
23I                 1:33      1.497
23I                 1:36      1.395
23I                 1:39      1.299
23I                 1:42      1.208
23I                 1:45      1.123
23I                 1:48      1.044
23I                 1:51      0.970
23I                 1:54      0.900
23I                 1:57      0.836
23I                 2:00      0.777
23I                 2:03      0.722
23I                 2:06      0.671
23I                 2:09      0.625
23I                 2:12      0.583
23I                 2:15      0.543
23I                 2:18      0.507
23I                 2:21      0.474
23I                 2:24      0.445
23I                 2:27      0.417
23I                 2:30      0.393
23I                 2:33      0.370
23I                 2:36      0.349
23I                 2:39      0.331
23I                 2:42      0.314
23I                 2:45      0.299
23I                 2:48      0.285
23I                 2:51      0.273
23I                 2:54      0.261
23I                 2:57      0.251
23I                 3:00      0.242
24C                 0:00      0.650
24C                 0:03      1.054
24C                 0:06      2.050
24C                 0:09      3.380
24C                 0:12      4.857
24C                 0:15      6.348
24C                 0:18      7.763
24C                 0:21      9.043
24C                 0:24      10.152
24C                 0:27      11.075
24C                 0:30      11.808
24C                 0:33      12.354
24C                 0:36      12.724
24C                 0:39      12.934
24C                 0:42      13.000
24C                 0:45      12.940
24C                 0:48      12.772
24C                 0:51      12.512
24C                 0:54      12.179
24C                 0:57      11.786
24C                 1:00      11.346
24C                 1:03      10.873
24C                 1:06      10.376
24C                 1:09      9.865
24C                 1:12      9.348
24C                 1:15      8.832
24C                 1:18      8.321
24C                 1:21      7.821
24C                 1:24      7.335
24C                 1:27      6.867
24C                 1:30      6.418
24C                 1:33      5.989
24C                 1:36      5.581
24C                 1:39      5.196
24C                 1:42      4.833
24C                 1:45      4.493
24C                 1:48      4.175
24C                 1:51      3.877
24C                 1:54      3.601
24C                 1:57      3.345
24C                 2:00      3.107
24C                 2:03      2.888
24C                 2:06      2.686
24C                 2:09      2.500
24C                 2:12      2.329
24C                 2:15      2.172
24C                 2:18      2.029
24C                 2:21      1.898
24C                 2:24      1.778
24C                 2:27      1.669
24C                 2:30      1.570
24C                 2:33      1.480
24C                 2:36      1.398
24C                 2:39      1.323
24C                 2:42      1.256
24C                 2:45      1.195
24C                 2:48      1.140
24C                 2:51      1.090
24C                 2:54      1.045
24C                 2:57      1.004
24C                 3:00      0.968
25C                 0:00      0.450
25C                 0:03      0.730
25C                 0:06      1.419
25C                 0:09      2.340
25C                 0:12      3.362
25C                 0:15      4.395
25C                 0:18      5.375
25C                 0:21      6.261
25C                 0:24      7.029
25C                 0:27      7.668
25C                 0:30      8.175
25C                 0:33      8.553
25C                 0:36      8.809
25C                 0:39      8.954
25C                 0:42      9.000
25C                 0:45      8.959
25C                 0:48      8.842
25C                 0:51      8.662
25C                 0:54      8.431
25C                 0:57      8.159
25C                 1:00      7.855
25C                 1:03      7.527
25C                 1:06      7.183
25C                 1:09      6.830
25C                 1:12      6.471
25C                 1:15      6.114
25C                 1:18      5.761
25C                 1:21      5.415
25C                 1:24      5.079
25C                 1:27      4.754
25C                 1:30      4.443
25C                 1:33      4.146
25C                 1:36      3.864
25C                 1:39      3.598
25C                 1:42      3.346
25C                 1:45      3.111
25C                 1:48      2.890
25C                 1:51      2.684
25C                 1:54      2.493
25C                 1:57      2.316
25C                 2:00      2.151
25C                 2:03      2.000
25C                 2:06      1.859
25C                 2:09      1.730
25C                 2:12      1.613
25C                 2:15      1.504
25C                 2:18      1.405
25C                 2:21      1.314
25C                 2:24      1.231
25C                 2:27      1.155
25C                 2:30      1.087
25C                 2:33      1.024
25C                 2:36      0.968
25C                 2:39      0.916
25C                 2:42      0.870
25C                 2:45      0.828
25C                 2:48      0.789
25C                 2:51      0.754
25C                 2:54      0.724
25C                 2:57      0.695
25C                 3:00      0.670
26C                 0:00      0.600
26C                 0:03      0.973
26C                 0:06      1.892
26C                 0:09      3.119
26C                 0:12      4.483
26C                 0:15      5.860
26C                 0:18      7.166
26C                 0:21      8.347
26C                 0:24      9.371
26C                 0:27      10.223
26C                 0:30      10.899
26C                 0:33      11.403
26C                 0:36      11.745
26C                 0:39      11.939
26C                 0:42      12.000
26C                 0:45      11.944
26C                 0:48      11.790
26C                 0:51      11.550
26C                 0:54      11.242
26C                 0:57      10.879
26C                 1:00      10.473
26C                 1:03      10.036
26C                 1:06      9.578
26C                 1:09      9.106
26C                 1:12      8.629
26C                 1:15      8.152
26C                 1:18      7.681
26C                 1:21      7.220
26C                 1:24      6.771
26C                 1:27      6.338
26C                 1:30      5.924
26C                 1:33      5.528
26C                 1:36      5.152
26C                 1:39      4.796
26C                 1:42      4.462
26C                 1:45      4.147
26C                 1:48      3.853
26C                 1:51      3.579
26C                 1:54      3.324
26C                 1:57      3.087
26C                 2:00      2.868
26C                 2:03      2.666
26C                 2:06      2.479
26C                 2:09      2.308
26C                 2:12      2.150
26C                 2:15      2.006
26C                 2:18      1.873
26C                 2:21      1.752
26C                 2:24      1.641
26C                 2:27      1.541
26C                 2:30      1.450
26C                 2:33      1.366
26C                 2:36      1.290
26C                 2:39      1.222
26C                 2:42      1.159
26C                 2:45      1.103
26C                 2:48      1.052
26C                 2:51      1.006
26C                 2:54      0.965
26C                 2:57      0.927
26C                 3:00      0.893
27C                 0:00      0.800
27C                 0:03      1.296
27C                 0:06      2.522
27C                 0:09      4.160
27C                 0:12      5.978
27C                 0:15      7.813
27C                 0:18      9.555
27C                 0:21      11.130
27C                 0:24      12.495
27C                 0:27      13.632
27C                 0:30      14.533
27C                 0:33      15.204
27C                 0:36      15.661
27C                 0:39      15.919
27C                 0:42      16.000
27C                 0:45      15.926
27C                 0:48      15.719
27C                 0:51      15.400
27C                 0:54      14.989
27C                 0:57      14.505
27C                 1:00      13.964
27C                 1:03      13.382
27C                 1:06      12.770
27C                 1:09      12.142
27C                 1:12      11.505
27C                 1:15      10.870
27C                 1:18      10.241
27C                 1:21      9.626
27C                 1:24      9.028
27C                 1:27      8.451
27C                 1:30      7.899
27C                 1:33      7.370
27C                 1:36      6.869
27C                 1:39      6.395
27C                 1:42      5.949
27C                 1:45      5.530
27C                 1:48      5.138
27C                 1:51      4.772
27C                 1:54      4.432
27C                 1:57      4.117
27C                 2:00      3.824
27C                 2:03      3.554
27C                 2:06      3.305
27C                 2:09      3.076
27C                 2:12      2.866
27C                 2:15      2.674
27C                 2:18      2.498
27C                 2:21      2.336
27C                 2:24      2.189
27C                 2:27      2.054
27C                 2:30      1.933
27C                 2:33      1.821
27C                 2:36      1.720
27C                 2:39      1.629
27C                 2:42      1.546
27C                 2:45      1.471
27C                 2:48      1.403
27C                 2:51      1.341
27C                 2:54      1.286
27C                 2:57      1.236
27C                 3:00      1.191
28C                 0:00      0.750
28C                 0:03      1.216
28C                 0:06      2.365
28C                 0:09      3.900
28C                 0:12      5.604
28C                 0:15      7.324
28C                 0:18      8.957
28C                 0:21      10.434
28C                 0:24      11.714
28C                 0:27      12.780
28C                 0:30      13.624
28C                 0:33      14.254
28C                 0:36      14.681
28C                 0:39      14.924
28C                 0:42      15.000
28C                 0:45      14.931
28C                 0:48      14.736
28C                 0:51      14.438
28C                 0:54      14.053
28C                 0:57      13.598
28C                 1:00      13.091
28C                 1:03      12.545
28C                 1:06      11.972
28C                 1:09      11.383
28C                 1:12      10.786
28C                 1:15      10.190
28C                 1:18      9.601
28C                 1:21      9.024
28C                 1:24      8.464
28C                 1:27      7.923
28C                 1:30      7.404
28C                 1:33      6.910
28C                 1:36      6.440
28C                 1:39      5.995
28C                 1:42      5.577
28C                 1:45      5.184
28C                 1:48      4.816
28C                 1:51      4.474
28C                 1:54      4.155
28C                 1:57      3.859
28C                 2:00      3.585
28C                 2:03      3.332
28C                 2:06      3.099
28C                 2:09      2.885
28C                 2:12      2.688
28C                 2:15      2.506
28C                 2:18      2.341
28C                 2:21      2.190
28C                 2:24      2.052
28C                 2:27      1.926
28C                 2:30      1.812
28C                 2:33      1.708
28C                 2:36      1.613
28C                 2:39      1.527
28C                 2:42      1.450
28C                 2:45      1.379
28C                 2:48      1.315
28C                 2:51      1.258
28C                 2:54      1.206
28C                 2:57      1.159
28C                 3:00      1.117
28I                 0:00      0.250
28I                 0:03      0.405
28I                 0:06      0.788
28I                 0:09      1.300
28I                 0:12      1.868
28I                 0:15      2.442
28I                 0:18      2.986
28I                 0:21      3.478
28I                 0:24      3.905
28I                 0:27      4.260
28I                 0:30      4.542
28I                 0:33      4.752
28I                 0:36      4.894
28I                 0:39      4.974
28I                 0:42      5.000
28I                 0:45      4.977
28I                 0:48      4.912
28I                 0:51      4.812
28I                 0:54      4.684
28I                 0:57      4.533
28I                 1:00      4.364
28I                 1:03      4.181
28I                 1:06      3.990
28I                 1:09      3.794
28I                 1:12      3.595
28I                 1:15      3.397
28I                 1:18      3.200
28I                 1:21      3.008
28I                 1:24      2.821
28I                 1:27      2.641
28I                 1:30      2.468
28I                 1:33      2.304
28I                 1:36      2.147
28I                 1:39      1.998
28I                 1:42      1.859
28I                 1:45      1.728
28I                 1:48      1.605
28I                 1:51      1.492
28I                 1:54      1.385
28I                 1:57      1.286
28I                 2:00      1.195
28I                 2:03      1.111
28I                 2:06      1.033
28I                 2:09      0.962
28I                 2:12      0.896
28I                 2:15      0.836
28I                 2:18      0.780
28I                 2:21      0.730
28I                 2:24      0.684
28I                 2:27      0.642
28I                 2:30      0.604
28I                 2:33      0.569
28I                 2:36      0.537
28I                 2:39      0.509
28I                 2:42      0.483
28I                 2:45      0.460
28I                 2:48      0.439
28I                 2:51      0.419
28I                 2:54      0.402
28I                 2:57      0.386
28I                 3:00      0.372
29C                 0:00      0.650
29C                 0:03      1.054
29C                 0:06      2.050
29C                 0:09      3.380
29C                 0:12      4.857
29C                 0:15      6.348
29C                 0:18      7.763
29C                 0:21      9.043
29C                 0:24      10.152
29C                 0:27      11.075
29C                 0:30      11.808
29C                 0:33      12.354
29C                 0:36      12.724
29C                 0:39      12.934
29C                 0:42      13.000
29C                 0:45      12.940
29C                 0:48      12.772
29C                 0:51      12.512
29C                 0:54      12.179
29C                 0:57      11.786
29C                 1:00      11.346
29C                 1:03      10.873
29C                 1:06      10.376
29C                 1:09      9.865
29C                 1:12      9.348
29C                 1:15      8.832
29C                 1:18      8.321
29C                 1:21      7.821
29C                 1:24      7.335
29C                 1:27      6.867
29C                 1:30      6.418
29C                 1:33      5.989
29C                 1:36      5.581
29C                 1:39      5.196
29C                 1:42      4.833
29C                 1:45      4.493
29C                 1:48      4.175
29C                 1:51      3.877
29C                 1:54      3.601
29C                 1:57      3.345
29C                 2:00      3.107
29C                 2:03      2.888
29C                 2:06      2.686
29C                 2:09      2.500
29C                 2:12      2.329
29C                 2:15      2.172
29C                 2:18      2.029
29C                 2:21      1.898
29C                 2:24      1.778
29C                 2:27      1.669
29C                 2:30      1.570
29C                 2:33      1.480
29C                 2:36      1.398
29C                 2:39      1.323
29C                 2:42      1.256
29C                 2:45      1.195
29C                 2:48      1.140
29C                 2:51      1.090
29C                 2:54      1.045
29C                 2:57      1.004
29C                 3:00      0.968
30C                 0:00      0.200
30C                 0:03      0.324
30C                 0:06      0.630
30C                 0:09      1.040
30C                 0:12      1.494
30C                 0:15      1.954
30C                 0:18      2.389
30C                 0:21      2.783
30C                 0:24      3.124
30C                 0:27      3.408
30C                 0:30      3.633
30C                 0:33      3.801
30C                 0:36      3.915
30C                 0:39      3.979
30C                 0:42      4.000
30C                 0:45      3.982
30C                 0:48      3.930
30C                 0:51      3.850
30C                 0:54      3.748
30C                 0:57      3.627
30C                 1:00      3.491
30C                 1:03      3.345
30C                 1:06      3.192
30C                 1:09      3.035
30C                 1:12      2.877
30C                 1:15      2.717
30C                 1:18      2.561
30C                 1:21      2.406
30C                 1:24      2.257
30C                 1:27      2.113
30C                 1:30      1.974
30C                 1:33      1.843
30C                 1:36      1.718
30C                 1:39      1.599
30C                 1:42      1.487
30C                 1:45      1.383
30C                 1:48      1.284
30C                 1:51      1.193
30C                 1:54      1.108
30C                 1:57      1.029
30C                 2:00      0.956
30C                 2:03      0.888
30C                 2:06      0.827
30C                 2:09      0.769
30C                 2:12      0.717
30C                 2:15      0.668
30C                 2:18      0.625
30C                 2:21      0.584
30C                 2:24      0.547
30C                 2:27      0.513
30C                 2:30      0.483
30C                 2:33      0.456
30C                 2:36      0.430
30C                 2:39      0.407
30C                 2:42      0.387
30C                 2:45      0.367
30C                 2:48      0.350
30C                 2:51      0.336
30C                 2:54      0.322
30C                 2:57      0.309
30C                 3:00      0.297
31C                 0:00      0.787
31C                 0:03      1.276
31C                 0:06      2.483
31C                 0:09      4.095
31C                 0:12      5.884
31C                 0:15      7.691
31C                 0:18      9.405
31C                 0:21      10.956
31C                 0:24      12.300
31C                 0:27      13.418
31C                 0:30      14.306
31C                 0:33      14.967
31C                 0:36      15.416
31C                 0:39      15.670
31C                 0:42      15.750
31C                 0:45      15.678
31C                 0:48      15.473
31C                 0:51      15.159
31C                 0:54      14.755
31C                 0:57      14.278
31C                 1:00      13.746
31C                 1:03      13.172
31C                 1:06      12.570
31C                 1:09      11.951
31C                 1:12      11.325
31C                 1:15      10.700
31C                 1:18      10.081
31C                 1:21      9.476
31C                 1:24      8.887
31C                 1:27      8.319
31C                 1:30      7.775
31C                 1:33      7.255
31C                 1:36      6.762
31C                 1:39      6.295
31C                 1:42      5.856
31C                 1:45      5.444
31C                 1:48      5.058
31C                 1:51      4.697
31C                 1:54      4.362
31C                 1:57      4.052
31C                 2:00      3.764
31C                 2:03      3.499
31C                 2:06      3.254
31C                 2:09      3.029
31C                 2:12      2.821
31C                 2:15      2.632
31C                 2:18      2.458
31C                 2:21      2.300
31C                 2:24      2.155
31C                 2:27      2.022
31C                 2:30      1.902
31C                 2:33      1.793
31C                 2:36      1.694
31C                 2:39      1.603
31C                 2:42      1.522
31C                 2:45      1.448
31C                 2:48      1.381
31C                 2:51      1.321
31C                 2:54      1.266
31C                 2:57      1.216
31C                 3:00      1.172
31I                 0:00      0.263
31I                 0:03      0.425
31I                 0:06      0.828
31I                 0:09      1.365
31I                 0:12      1.962
31I                 0:15      2.563
31I                 0:18      3.135
31I                 0:21      3.652
31I                 0:24      4.100
31I                 0:27      4.473
31I                 0:30      4.769
31I                 0:33      4.989
31I                 0:36      5.138
31I                 0:39      5.223
31I                 0:42      5.250
31I                 0:45      5.226
31I                 0:48      5.158
31I                 0:51      5.053
31I                 0:54      4.918
31I                 0:57      4.760
31I                 1:00      4.582
31I                 1:03      4.391
31I                 1:06      4.190
31I                 1:09      3.984
31I                 1:12      3.775
31I                 1:15      3.567
31I                 1:18      3.361
31I                 1:21      3.159
31I                 1:24      2.962
31I                 1:27      2.773
31I                 1:30      2.591
31I                 1:33      2.418
31I                 1:36      2.254
31I                 1:39      2.099
31I                 1:42      1.952
31I                 1:45      1.815
31I                 1:48      1.686
31I                 1:51      1.566
31I                 1:54      1.454
31I                 1:57      1.351
31I                 2:00      1.255
31I                 2:03      1.167
31I                 2:06      1.085
31I                 2:09      1.010
31I                 2:12      0.941
31I                 2:15      0.877
31I                 2:18      0.820
31I                 2:21      0.766
31I                 2:24      0.718
31I                 2:27      0.674
31I                 2:30      0.634
31I                 2:33      0.598
31I                 2:36      0.565
31I                 2:39      0.534
31I                 2:42      0.507
31I                 2:45      0.482
31I                 2:48      0.461
31I                 2:51      0.440
31I                 2:54      0.422
31I                 2:57      0.406
31I                 3:00      0.391
32C                 0:00      0.650
32C                 0:03      1.054
32C                 0:06      2.050
32C                 0:09      3.380
32C                 0:12      4.857
32C                 0:15      6.348
32C                 0:18      7.763
32C                 0:21      9.043
32C                 0:24      10.152
32C                 0:27      11.075
32C                 0:30      11.808
32C                 0:33      12.354
32C                 0:36      12.724
32C                 0:39      12.934
32C                 0:42      13.000
32C                 0:45      12.940
32C                 0:48      12.772
32C                 0:51      12.512
32C                 0:54      12.179
32C                 0:57      11.786
32C                 1:00      11.346
32C                 1:03      10.873
32C                 1:06      10.376
32C                 1:09      9.865
32C                 1:12      9.348
32C                 1:15      8.832
32C                 1:18      8.321
32C                 1:21      7.821
32C                 1:24      7.335
32C                 1:27      6.867
32C                 1:30      6.418
32C                 1:33      5.989
32C                 1:36      5.581
32C                 1:39      5.196
32C                 1:42      4.833
32C                 1:45      4.493
32C                 1:48      4.175
32C                 1:51      3.877
32C                 1:54      3.601
32C                 1:57      3.345
32C                 2:00      3.107
32C                 2:03      2.888
32C                 2:06      2.686
32C                 2:09      2.500
32C                 2:12      2.329
32C                 2:15      2.172
32C                 2:18      2.029
32C                 2:21      1.898
32C                 2:24      1.778
32C                 2:27      1.669
32C                 2:30      1.570
32C                 2:33      1.480
32C                 2:36      1.398
32C                 2:39      1.323
32C                 2:42      1.256
32C                 2:45      1.195
32C                 2:48      1.140
32C                 2:51      1.090
32C                 2:54      1.045
32C                 2:57      1.004
32C                 3:00      0.968
33C                 0:00      0.650
33C                 0:03      1.054
33C                 0:06      2.050
33C                 0:09      3.380
33C                 0:12      4.857
33C                 0:15      6.348
33C                 0:18      7.763
33C                 0:21      9.043
33C                 0:24      10.152
33C                 0:27      11.075
33C                 0:30      11.808
33C                 0:33      12.354
33C                 0:36      12.724
33C                 0:39      12.934
33C                 0:42      13.000
33C                 0:45      12.940
33C                 0:48      12.772
33C                 0:51      12.512
33C                 0:54      12.179
33C                 0:57      11.786
33C                 1:00      11.346
33C                 1:03      10.873
33C                 1:06      10.376
33C                 1:09      9.865
33C                 1:12      9.348
33C                 1:15      8.832
33C                 1:18      8.321
33C                 1:21      7.821
33C                 1:24      7.335
33C                 1:27      6.867
33C                 1:30      6.418
33C                 1:33      5.989
33C                 1:36      5.581
33C                 1:39      5.196
33C                 1:42      4.833
33C                 1:45      4.493
33C                 1:48      4.175
33C                 1:51      3.877
33C                 1:54      3.601
33C                 1:57      3.345
33C                 2:00      3.107
33C                 2:03      2.888
33C                 2:06      2.686
33C                 2:09      2.500
33C                 2:12      2.329
33C                 2:15      2.172
33C                 2:18      2.029
33C                 2:21      1.898
33C                 2:24      1.778
33C                 2:27      1.669
33C                 2:30      1.570
33C                 2:33      1.480
33C                 2:36      1.398
33C                 2:39      1.323
33C                 2:42      1.256
33C                 2:45      1.195
33C                 2:48      1.140
33C                 2:51      1.090
33C                 2:54      1.045
33C                 2:57      1.004
33C                 3:00      0.968
34I                 0:00      0.338
34I                 0:03      0.547
34I                 0:06      1.064
34I                 0:09      1.755
34I                 0:12      2.522
34I                 0:15      3.296
34I                 0:18      4.031
34I                 0:21      4.695
34I                 0:24      5.271
34I                 0:27      5.751
34I                 0:30      6.131
34I                 0:33      6.415
34I                 0:36      6.607
34I                 0:39      6.715
34I                 0:42      6.750
34I                 0:45      6.719
34I                 0:48      6.631
34I                 0:51      6.497
34I                 0:54      6.324
34I                 0:57      6.120
34I                 1:00      5.891
34I                 1:03      5.646
34I                 1:06      5.388
34I                 1:09      5.122
34I                 1:12      4.854
34I                 1:15      4.585
34I                 1:18      4.321
34I                 1:21      4.061
34I                 1:24      3.809
34I                 1:27      3.566
34I                 1:30      3.332
34I                 1:33      3.110
34I                 1:36      2.898
34I                 1:39      2.698
34I                 1:42      2.510
34I                 1:45      2.333
34I                 1:48      2.167
34I                 1:51      2.013
34I                 1:54      1.869
34I                 1:57      1.736
34I                 2:00      1.613
34I                 2:03      1.500
34I                 2:06      1.395
34I                 2:09      1.298
34I                 2:12      1.210
34I                 2:15      1.128
34I                 2:18      1.054
34I                 2:21      0.986
34I                 2:24      0.923
34I                 2:27      0.867
34I                 2:30      0.815
34I                 2:33      0.768
34I                 2:36      0.726
34I                 2:39      0.687
34I                 2:42      0.652
34I                 2:45      0.621
34I                 2:48      0.592
34I                 2:51      0.566
34I                 2:54      0.542
34I                 2:57      0.521
34I                 3:00      0.502
34Ib                0:00      0.113
34Ib                0:03      0.182
34Ib                0:06      0.354
34Ib                0:09      0.585
34Ib                0:12      0.841
34Ib                0:15      1.099
34Ib                0:18      1.343
34Ib                0:21      1.565
34Ib                0:24      1.757
34Ib                0:27      1.917
34Ib                0:30      2.043
34Ib                0:33      2.138
34Ib                0:36      2.203
34Ib                0:39      2.239
34Ib                0:42      2.250
34Ib                0:45      2.240
34Ib                0:48      2.211
34Ib                0:51      2.166
34Ib                0:54      2.108
34Ib                0:57      2.040
34Ib                1:00      1.964
34Ib                1:03      1.882
34Ib                1:06      1.796
34Ib                1:09      1.708
34Ib                1:12      1.618
34Ib                1:15      1.528
34Ib                1:18      1.440
34Ib                1:21      1.353
34Ib                1:24      1.270
34Ib                1:27      1.188
34Ib                1:30      1.111
34Ib                1:33      1.036
34Ib                1:36      0.966
34Ib                1:39      0.899
34Ib                1:42      0.837
34Ib                1:45      0.777
34Ib                1:48      0.723
34Ib                1:51      0.671
34Ib                1:54      0.623
34Ib                1:57      0.579
34Ib                2:00      0.538
34Ib                2:03      0.500
34Ib                2:06      0.465
34Ib                2:09      0.432
34Ib                2:12      0.403
34Ib                2:15      0.376
34Ib                2:18      0.351
34Ib                2:21      0.329
34Ib                2:24      0.308
34Ib                2:27      0.289
34Ib                2:30      0.272
34Ib                2:33      0.256
34Ib                2:36      0.242
34Ib                2:39      0.229
34Ib                2:42      0.217
34Ib                2:45      0.207
34Ib                2:48      0.198
34Ib                2:51      0.189
34Ib                2:54      0.181
34Ib                2:57      0.174
34Ib                3:00      0.168
35C                 0:00      0.700
35C                 0:03      1.135
35C                 0:06      2.207
35C                 0:09      3.639
35C                 0:12      5.231
35C                 0:15      6.837
35C                 0:18      8.360
35C                 0:21      9.739
35C                 0:24      10.934
35C                 0:27      11.928
35C                 0:30      12.716
35C                 0:33      13.304
35C                 0:36      13.703
35C                 0:39      13.929
35C                 0:42      14.000
35C                 0:45      13.935
35C                 0:48      13.754
35C                 0:51      13.475
35C                 0:54      13.116
35C                 0:57      12.692
35C                 1:00      12.219
35C                 1:03      11.709
35C                 1:06      11.174
35C                 1:09      10.623
35C                 1:12      10.067
35C                 1:15      9.511
35C                 1:18      8.961
35C                 1:21      8.423
35C                 1:24      7.900
35C                 1:27      7.395
35C                 1:30      6.911
35C                 1:33      6.449
35C                 1:36      6.011
35C                 1:39      5.596
35C                 1:42      5.205
35C                 1:45      4.838
35C                 1:48      4.495
35C                 1:51      4.176
35C                 1:54      3.878
35C                 1:57      3.602
35C                 2:00      3.346
35C                 2:03      3.110
35C                 2:06      2.893
35C                 2:09      2.692
35C                 2:12      2.508
35C                 2:15      2.340
35C                 2:18      2.185
35C                 2:21      2.044
35C                 2:24      1.915
35C                 2:27      1.798
35C                 2:30      1.691
35C                 2:33      1.593
35C                 2:36      1.506
35C                 2:39      1.425
35C                 2:42      1.353
35C                 2:45      1.287
35C                 2:48      1.228
35C                 2:51      1.173
35C                 2:54      1.125
35C                 2:57      1.081
35C                 3:00      1.042
36C                 0:00      0.700
36C                 0:03      1.135
36C                 0:06      2.207
36C                 0:09      3.639
36C                 0:12      5.231
36C                 0:15      6.837
36C                 0:18      8.360
36C                 0:21      9.739
36C                 0:24      10.934
36C                 0:27      11.928
36C                 0:30      12.716
36C                 0:33      13.304
36C                 0:36      13.703
36C                 0:39      13.929
36C                 0:42      14.000
36C                 0:45      13.935
36C                 0:48      13.754
36C                 0:51      13.475
36C                 0:54      13.116
36C                 0:57      12.692
36C                 1:00      12.219
36C                 1:03      11.709
36C                 1:06      11.174
36C                 1:09      10.623
36C                 1:12      10.067
36C                 1:15      9.511
36C                 1:18      8.961
36C                 1:21      8.423
36C                 1:24      7.900
36C                 1:27      7.395
36C                 1:30      6.911
36C                 1:33      6.449
36C                 1:36      6.011
36C                 1:39      5.596
36C                 1:42      5.205
36C                 1:45      4.838
36C                 1:48      4.495
36C                 1:51      4.176
36C                 1:54      3.878
36C                 1:57      3.602
36C                 2:00      3.346
36C                 2:03      3.110
36C                 2:06      2.893
36C                 2:09      2.692
36C                 2:12      2.508
36C                 2:15      2.340
36C                 2:18      2.185
36C                 2:21      2.044
36C                 2:24      1.915
36C                 2:27      1.798
36C                 2:30      1.691
36C                 2:33      1.593
36C                 2:36      1.506
36C                 2:39      1.425
36C                 2:42      1.353
36C                 2:45      1.287
36C                 2:48      1.228
36C                 2:51      1.173
36C                 2:54      1.125
36C                 2:57      1.081
36C                 3:00      1.042
37I                 0:00      0.338
37I                 0:03      0.547
37I                 0:06      1.064
37I                 0:09      1.755
37I                 0:12      2.522
37I                 0:15      3.296
37I                 0:18      4.031
37I                 0:21      4.695
37I                 0:24      5.271
37I                 0:27      5.751
37I                 0:30      6.131
37I                 0:33      6.415
37I                 0:36      6.607
37I                 0:39      6.715
37I                 0:42      6.750
37I                 0:45      6.719
37I                 0:48      6.631
37I                 0:51      6.497
37I                 0:54      6.324
37I                 0:57      6.120
37I                 1:00      5.891
37I                 1:03      5.646
37I                 1:06      5.388
37I                 1:09      5.122
37I                 1:12      4.854
37I                 1:15      4.585
37I                 1:18      4.321
37I                 1:21      4.061
37I                 1:24      3.809
37I                 1:27      3.566
37I                 1:30      3.332
37I                 1:33      3.110
37I                 1:36      2.898
37I                 1:39      2.698
37I                 1:42      2.510
37I                 1:45      2.333
37I                 1:48      2.167
37I                 1:51      2.013
37I                 1:54      1.869
37I                 1:57      1.736
37I                 2:00      1.613
37I                 2:03      1.500
37I                 2:06      1.395
37I                 2:09      1.298
37I                 2:12      1.210
37I                 2:15      1.128
37I                 2:18      1.054
37I                 2:21      0.986
37I                 2:24      0.923
37I                 2:27      0.867
37I                 2:30      0.815
37I                 2:33      0.768
37I                 2:36      0.726
37I                 2:39      0.687
37I                 2:42      0.652
37I                 2:45      0.621
37I                 2:48      0.592
37I                 2:51      0.566
37I                 2:54      0.542
37I                 2:57      0.521
37I                 3:00      0.502
37Ib                0:00      0.113
37Ib                0:03      0.182
37Ib                0:06      0.354
37Ib                0:09      0.585
37Ib                0:12      0.841
37Ib                0:15      1.099
37Ib                0:18      1.343
37Ib                0:21      1.565
37Ib                0:24      1.757
37Ib                0:27      1.917
37Ib                0:30      2.043
37Ib                0:33      2.138
37Ib                0:36      2.203
37Ib                0:39      2.239
37Ib                0:42      2.250
37Ib                0:45      2.240
37Ib                0:48      2.211
37Ib                0:51      2.166
37Ib                0:54      2.108
37Ib                0:57      2.040
37Ib                1:00      1.964
37Ib                1:03      1.882
37Ib                1:06      1.796
37Ib                1:09      1.708
37Ib                1:12      1.618
37Ib                1:15      1.528
37Ib                1:18      1.440
37Ib                1:21      1.353
37Ib                1:24      1.270
37Ib                1:27      1.188
37Ib                1:30      1.111
37Ib                1:33      1.036
37Ib                1:36      0.966
37Ib                1:39      0.899
37Ib                1:42      0.837
37Ib                1:45      0.777
37Ib                1:48      0.723
37Ib                1:51      0.671
37Ib                1:54      0.623
37Ib                1:57      0.579
37Ib                2:00      0.538
37Ib                2:03      0.500
37Ib                2:06      0.465
37Ib                2:09      0.432
37Ib                2:12      0.403
37Ib                2:15      0.376
37Ib                2:18      0.351
37Ib                2:21      0.329
37Ib                2:24      0.308
37Ib                2:27      0.289
37Ib                2:30      0.272
37Ib                2:33      0.256
37Ib                2:36      0.242
37Ib                2:39      0.229
37Ib                2:42      0.217
37Ib                2:45      0.207
37Ib                2:48      0.198
37Ib                2:51      0.189
37Ib                2:54      0.181
37Ib                2:57      0.174
37Ib                3:00      0.168
38C                 0:00      0.450
38C                 0:03      0.730
38C                 0:06      1.419
38C                 0:09      2.340
38C                 0:12      3.362
38C                 0:15      4.395
38C                 0:18      5.375
38C                 0:21      6.261
38C                 0:24      7.029
38C                 0:27      7.668
38C                 0:30      8.175
38C                 0:33      8.553
38C                 0:36      8.809
38C                 0:39      8.954
38C                 0:42      9.000
38C                 0:45      8.959
38C                 0:48      8.842
38C                 0:51      8.662
38C                 0:54      8.431
38C                 0:57      8.159
38C                 1:00      7.855
38C                 1:03      7.527
38C                 1:06      7.183
38C                 1:09      6.830
38C                 1:12      6.471
38C                 1:15      6.114
38C                 1:18      5.761
38C                 1:21      5.415
38C                 1:24      5.079
38C                 1:27      4.754
38C                 1:30      4.443
38C                 1:33      4.146
38C                 1:36      3.864
38C                 1:39      3.598
38C                 1:42      3.346
38C                 1:45      3.111
38C                 1:48      2.890
38C                 1:51      2.684
38C                 1:54      2.493
38C                 1:57      2.316
38C                 2:00      2.151
38C                 2:03      2.000
38C                 2:06      1.859
38C                 2:09      1.730
38C                 2:12      1.613
38C                 2:15      1.504
38C                 2:18      1.405
38C                 2:21      1.314
38C                 2:24      1.231
38C                 2:27      1.155
38C                 2:30      1.087
38C                 2:33      1.024
38C                 2:36      0.968
38C                 2:39      0.916
38C                 2:42      0.870
38C                 2:45      0.828
38C                 2:48      0.789
38C                 2:51      0.754
38C                 2:54      0.724
38C                 2:57      0.695
38C                 3:00      0.670
39C                 0:00      0.650
39C                 0:03      1.054
39C                 0:06      2.050
39C                 0:09      3.380
39C                 0:12      4.857
39C                 0:15      6.348
39C                 0:18      7.763
39C                 0:21      9.043
39C                 0:24      10.152
39C                 0:27      11.075
39C                 0:30      11.808
39C                 0:33      12.354
39C                 0:36      12.724
39C                 0:39      12.934
39C                 0:42      13.000
39C                 0:45      12.940
39C                 0:48      12.772
39C                 0:51      12.512
39C                 0:54      12.179
39C                 0:57      11.786
39C                 1:00      11.346
39C                 1:03      10.873
39C                 1:06      10.376
39C                 1:09      9.865
39C                 1:12      9.348
39C                 1:15      8.832
39C                 1:18      8.321
39C                 1:21      7.821
39C                 1:24      7.335
39C                 1:27      6.867
39C                 1:30      6.418
39C                 1:33      5.989
39C                 1:36      5.581
39C                 1:39      5.196
39C                 1:42      4.833
39C                 1:45      4.493
39C                 1:48      4.175
39C                 1:51      3.877
39C                 1:54      3.601
39C                 1:57      3.345
39C                 2:00      3.107
39C                 2:03      2.888
39C                 2:06      2.686
39C                 2:09      2.500
39C                 2:12      2.329
39C                 2:15      2.172
39C                 2:18      2.029
39C                 2:21      1.898
39C                 2:24      1.778
39C                 2:27      1.669
39C                 2:30      1.570
39C                 2:33      1.480
39C                 2:36      1.398
39C                 2:39      1.323
39C                 2:42      1.256
39C                 2:45      1.195
39C                 2:48      1.140
39C                 2:51      1.090
39C                 2:54      1.045
39C                 2:57      1.004
39C                 3:00      0.968
40C                 0:00      0.450
40C                 0:03      0.730
40C                 0:06      1.419
40C                 0:09      2.340
40C                 0:12      3.362
40C                 0:15      4.395
40C                 0:18      5.375
40C                 0:21      6.261
40C                 0:24      7.029
40C                 0:27      7.668
40C                 0:30      8.175
40C                 0:33      8.553
40C                 0:36      8.809
40C                 0:39      8.954
40C                 0:42      9.000
40C                 0:45      8.959
40C                 0:48      8.842
40C                 0:51      8.662
40C                 0:54      8.431
40C                 0:57      8.159
40C                 1:00      7.855
40C                 1:03      7.527
40C                 1:06      7.183
40C                 1:09      6.830
40C                 1:12      6.471
40C                 1:15      6.114
40C                 1:18      5.761
40C                 1:21      5.415
40C                 1:24      5.079
40C                 1:27      4.754
40C                 1:30      4.443
40C                 1:33      4.146
40C                 1:36      3.864
40C                 1:39      3.598
40C                 1:42      3.346
40C                 1:45      3.111
40C                 1:48      2.890
40C                 1:51      2.684
40C                 1:54      2.493
40C                 1:57      2.316
40C                 2:00      2.151
40C                 2:03      2.000
40C                 2:06      1.859
40C                 2:09      1.730
40C                 2:12      1.613
40C                 2:15      1.504
40C                 2:18      1.405
40C                 2:21      1.314
40C                 2:24      1.231
40C                 2:27      1.155
40C                 2:30      1.087
40C                 2:33      1.024
40C                 2:36      0.968
40C                 2:39      0.916
40C                 2:42      0.870
40C                 2:45      0.828
40C                 2:48      0.789
40C                 2:51      0.754
40C                 2:54      0.724
40C                 2:57      0.695
40C                 3:00      0.670
40I                 0:00      0.150
40I                 0:03      0.243
40I                 0:06      0.473
40I                 0:09      0.780
40I                 0:12      1.121
40I                 0:15      1.465
40I                 0:18      1.792
40I                 0:21      2.087
40I                 0:24      2.343
40I                 0:27      2.556
40I                 0:30      2.725
40I                 0:33      2.851
40I                 0:36      2.937
40I                 0:39      2.985
40I                 0:42      3.000
40I                 0:45      2.986
40I                 0:48      2.947
40I                 0:51      2.888
40I                 0:54      2.811
40I                 0:57      2.720
40I                 1:00      2.619
40I                 1:03      2.509
40I                 1:06      2.394
40I                 1:09      2.276
40I                 1:12      2.157
40I                 1:15      2.038
40I                 1:18      1.920
40I                 1:21      1.805
40I                 1:24      1.693
40I                 1:27      1.585
40I                 1:30      1.481
40I                 1:33      1.382
40I                 1:36      1.288
40I                 1:39      1.199
40I                 1:42      1.115
40I                 1:45      1.037
40I                 1:48      0.964
40I                 1:51      0.895
40I                 1:54      0.831
40I                 1:57      0.772
40I                 2:00      0.717
40I                 2:03      0.666
40I                 2:06      0.620
40I                 2:09      0.577
40I                 2:12      0.537
40I                 2:15      0.501
40I                 2:18      0.468
40I                 2:21      0.438
40I                 2:24      0.410
40I                 2:27      0.385
40I                 2:30      0.362
40I                 2:33      0.342
40I                 2:36      0.323
40I                 2:39      0.305
40I                 2:42      0.290
40I                 2:45      0.276
40I                 2:48      0.263
40I                 2:51      0.252
40I                 2:54      0.241
40I                 2:57      0.232
40I                 3:00      0.224
41C                 0:00      0.650
41C                 0:03      1.054
41C                 0:06      2.050
41C                 0:09      3.380
41C                 0:12      4.857
41C                 0:15      6.348
41C                 0:18      7.763
41C                 0:21      9.043
41C                 0:24      10.152
41C                 0:27      11.075
41C                 0:30      11.808
41C                 0:33      12.354
41C                 0:36      12.724
41C                 0:39      12.934
41C                 0:42      13.000
41C                 0:45      12.940
41C                 0:48      12.772
41C                 0:51      12.512
41C                 0:54      12.179
41C                 0:57      11.786
41C                 1:00      11.346
41C                 1:03      10.873
41C                 1:06      10.376
41C                 1:09      9.865
41C                 1:12      9.348
41C                 1:15      8.832
41C                 1:18      8.321
41C                 1:21      7.821
41C                 1:24      7.335
41C                 1:27      6.867
41C                 1:30      6.418
41C                 1:33      5.989
41C                 1:36      5.581
41C                 1:39      5.196
41C                 1:42      4.833
41C                 1:45      4.493
41C                 1:48      4.175
41C                 1:51      3.877
41C                 1:54      3.601
41C                 1:57      3.345
41C                 2:00      3.107
41C                 2:03      2.888
41C                 2:06      2.686
41C                 2:09      2.500
41C                 2:12      2.329
41C                 2:15      2.172
41C                 2:18      2.029
41C                 2:21      1.898
41C                 2:24      1.778
41C                 2:27      1.669
41C                 2:30      1.570
41C                 2:33      1.480
41C                 2:36      1.398
41C                 2:39      1.323
41C                 2:42      1.256
41C                 2:45      1.195
41C                 2:48      1.140
41C                 2:51      1.090
41C                 2:54      1.045
41C                 2:57      1.004
41C                 3:00      0.968
42C                 0:00      0.450
42C                 0:03      0.730
42C                 0:06      1.419
42C                 0:09      2.340
42C                 0:12      3.362
42C                 0:15      4.395
42C                 0:18      5.375
42C                 0:21      6.261
42C                 0:24      7.029
42C                 0:27      7.668
42C                 0:30      8.175
42C                 0:33      8.553
42C                 0:36      8.809
42C                 0:39      8.954
42C                 0:42      9.000
42C                 0:45      8.959
42C                 0:48      8.842
42C                 0:51      8.662
42C                 0:54      8.431
42C                 0:57      8.159
42C                 1:00      7.855
42C                 1:03      7.527
42C                 1:06      7.183
42C                 1:09      6.830
42C                 1:12      6.471
42C                 1:15      6.114
42C                 1:18      5.761
42C                 1:21      5.415
42C                 1:24      5.079
42C                 1:27      4.754
42C                 1:30      4.443
42C                 1:33      4.146
42C                 1:36      3.864
42C                 1:39      3.598
42C                 1:42      3.346
42C                 1:45      3.111
42C                 1:48      2.890
42C                 1:51      2.684
42C                 1:54      2.493
42C                 1:57      2.316
42C                 2:00      2.151
42C                 2:03      2.000
42C                 2:06      1.859
42C                 2:09      1.730
42C                 2:12      1.613
42C                 2:15      1.504
42C                 2:18      1.405
42C                 2:21      1.314
42C                 2:24      1.231
42C                 2:27      1.155
42C                 2:30      1.087
42C                 2:33      1.024
42C                 2:36      0.968
42C                 2:39      0.916
42C                 2:42      0.870
42C                 2:45      0.828
42C                 2:48      0.789
42C                 2:51      0.754
42C                 2:54      0.724
42C                 2:57      0.695
42C                 3:00      0.670
43C                 0:00      0.487
43C                 0:03      0.790
43C                 0:06      1.537
43C                 0:09      2.535
43C                 0:12      3.643
43C                 0:15      4.761
43C                 0:18      5.822
43C                 0:21      6.782
43C                 0:24      7.614
43C                 0:27      8.307
43C                 0:30      8.856
43C                 0:33      9.265
43C                 0:36      9.543
43C                 0:39      9.700
43C                 0:42      9.750
43C                 0:45      9.705
43C                 0:48      9.579
43C                 0:51      9.384
43C                 0:54      9.134
43C                 0:57      8.839
43C                 1:00      8.509
43C                 1:03      8.155
43C                 1:06      7.782
43C                 1:09      7.399
43C                 1:12      7.011
43C                 1:15      6.623
43C                 1:18      6.241
43C                 1:21      5.866
43C                 1:24      5.502
43C                 1:27      5.150
43C                 1:30      4.813
43C                 1:33      4.492
43C                 1:36      4.186
43C                 1:39      3.897
43C                 1:42      3.625
43C                 1:45      3.369
43C                 1:48      3.131
43C                 1:51      2.908
43C                 1:54      2.700
43C                 1:57      2.509
43C                 2:00      2.330
43C                 2:03      2.166
43C                 2:06      2.014
43C                 2:09      1.875
43C                 2:12      1.747
43C                 2:15      1.629
43C                 2:18      1.522
43C                 2:21      1.423
43C                 2:24      1.334
43C                 2:27      1.252
43C                 2:30      1.177
43C                 2:33      1.110
43C                 2:36      1.048
43C                 2:39      0.993
43C                 2:42      0.942
43C                 2:45      0.896
43C                 2:48      0.855
43C                 2:51      0.818
43C                 2:54      0.783
43C                 2:57      0.753
43C                 3:00      0.726
43I                 0:00      0.163
43I                 0:03      0.264
43I                 0:06      0.512
43I                 0:09      0.845
43I                 0:12      1.214
43I                 0:15      1.587
43I                 0:18      1.940
43I                 0:21      2.260
43I                 0:24      2.538
43I                 0:27      2.769
43I                 0:30      2.952
43I                 0:33      3.088
43I                 0:36      3.181
43I                 0:39      3.233
43I                 0:42      3.250
43I                 0:45      3.235
43I                 0:48      3.193
43I                 0:51      3.128
43I                 0:54      3.045
43I                 0:57      2.946
43I                 1:00      2.837
43I                 1:03      2.718
43I                 1:06      2.594
43I                 1:09      2.466
43I                 1:12      2.337
43I                 1:15      2.208
43I                 1:18      2.080
43I                 1:21      1.956
43I                 1:24      1.834
43I                 1:27      1.716
43I                 1:30      1.605
43I                 1:33      1.497
43I                 1:36      1.395
43I                 1:39      1.299
43I                 1:42      1.208
43I                 1:45      1.123
43I                 1:48      1.044
43I                 1:51      0.970
43I                 1:54      0.900
43I                 1:57      0.836
43I                 2:00      0.777
43I                 2:03      0.722
43I                 2:06      0.671
43I                 2:09      0.625
43I                 2:12      0.583
43I                 2:15      0.543
43I                 2:18      0.507
43I                 2:21      0.474
43I                 2:24      0.445
43I                 2:27      0.417
43I                 2:30      0.393
43I                 2:33      0.370
43I                 2:36      0.349
43I                 2:39      0.331
43I                 2:42      0.314
43I                 2:45      0.299
43I                 2:48      0.285
43I                 2:51      0.273
43I                 2:54      0.261
43I                 2:57      0.251
43I                 3:00      0.242
44C                 0:00      0.650
44C                 0:03      1.054
44C                 0:06      2.050
44C                 0:09      3.380
44C                 0:12      4.857
44C                 0:15      6.348
44C                 0:18      7.763
44C                 0:21      9.043
44C                 0:24      10.152
44C                 0:27      11.075
44C                 0:30      11.808
44C                 0:33      12.354
44C                 0:36      12.724
44C                 0:39      12.934
44C                 0:42      13.000
44C                 0:45      12.940
44C                 0:48      12.772
44C                 0:51      12.512
44C                 0:54      12.179
44C                 0:57      11.786
44C                 1:00      11.346
44C                 1:03      10.873
44C                 1:06      10.376
44C                 1:09      9.865
44C                 1:12      9.348
44C                 1:15      8.832
44C                 1:18      8.321
44C                 1:21      7.821
44C                 1:24      7.335
44C                 1:27      6.867
44C                 1:30      6.418
44C                 1:33      5.989
44C                 1:36      5.581
44C                 1:39      5.196
44C                 1:42      4.833
44C                 1:45      4.493
44C                 1:48      4.175
44C                 1:51      3.877
44C                 1:54      3.601
44C                 1:57      3.345
44C                 2:00      3.107
44C                 2:03      2.888
44C                 2:06      2.686
44C                 2:09      2.500
44C                 2:12      2.329
44C                 2:15      2.172
44C                 2:18      2.029
44C                 2:21      1.898
44C                 2:24      1.778
44C                 2:27      1.669
44C                 2:30      1.570
44C                 2:33      1.480
44C                 2:36      1.398
44C                 2:39      1.323
44C                 2:42      1.256
44C                 2:45      1.195
44C                 2:48      1.140
44C                 2:51      1.090
44C                 2:54      1.045
44C                 2:57      1.004
44C                 3:00      0.968
45C                 0:00      0.650
45C                 0:03      1.054
45C                 0:06      2.050
45C                 0:09      3.380
45C                 0:12      4.857
45C                 0:15      6.348
45C                 0:18      7.763
45C                 0:21      9.043
45C                 0:24      10.152
45C                 0:27      11.075
45C                 0:30      11.808
45C                 0:33      12.354
45C                 0:36      12.724
45C                 0:39      12.934
45C                 0:42      13.000
45C                 0:45      12.940
45C                 0:48      12.772
45C                 0:51      12.512
45C                 0:54      12.179
45C                 0:57      11.786
45C                 1:00      11.346
45C                 1:03      10.873
45C                 1:06      10.376
45C                 1:09      9.865
45C                 1:12      9.348
45C                 1:15      8.832
45C                 1:18      8.321
45C                 1:21      7.821
45C                 1:24      7.335
45C                 1:27      6.867
45C                 1:30      6.418
45C                 1:33      5.989
45C                 1:36      5.581
45C                 1:39      5.196
45C                 1:42      4.833
45C                 1:45      4.493
45C                 1:48      4.175
45C                 1:51      3.877
45C                 1:54      3.601
45C                 1:57      3.345
45C                 2:00      3.107
45C                 2:03      2.888
45C                 2:06      2.686
45C                 2:09      2.500
45C                 2:12      2.329
45C                 2:15      2.172
45C                 2:18      2.029
45C                 2:21      1.898
45C                 2:24      1.778
45C                 2:27      1.669
45C                 2:30      1.570
45C                 2:33      1.480
45C                 2:36      1.398
45C                 2:39      1.323
45C                 2:42      1.256
45C                 2:45      1.195
45C                 2:48      1.140
45C                 2:51      1.090
45C                 2:54      1.045
45C                 2:57      1.004
45C                 3:00      0.968
46C                 0:00      0.000
46C                 0:03      0.000
46C                 0:06      0.000
46C                 0:09      0.000
46C                 0:12      0.000
46C                 0:15      0.000
46C                 0:18      0.000
46C                 0:21      0.000
46C                 0:24      0.000
46C                 0:27      0.000
46C                 0:30      0.000
46C                 0:33      0.000
46C                 0:36      0.000
46C                 0:39      0.000
46C                 0:42      0.000
46C                 0:45      0.000
46C                 0:48      0.000
46C                 0:51      0.000
46C                 0:54      0.000
46C                 0:57      0.000
46C                 1:00      0.000
46C                 1:03      0.000
46C                 1:06      0.000
46C                 1:09      0.000
46C                 1:12      0.000
46C                 1:15      0.000
46C                 1:18      0.000
46C                 1:21      0.000
46C                 1:24      0.000
46C                 1:27      0.000
46C                 1:30      0.000
46C                 1:33      0.000
46C                 1:36      0.000
46C                 1:39      0.000
46C                 1:42      0.000
46C                 1:45      0.000
46C                 1:48      0.000
46C                 1:51      0.000
46C                 1:54      0.000
46C                 1:57      0.000
46C                 2:00      0.000
46C                 2:03      0.000
46C                 2:06      0.000
46C                 2:09      0.000
46C                 2:12      0.000
46C                 2:15      0.000
46C                 2:18      0.000
46C                 2:21      0.000
46C                 2:24      0.000
46C                 2:27      0.000
46C                 2:30      0.000
46C                 2:33      0.000
46C                 2:36      0.000
46C                 2:39      0.000
46C                 2:42      0.000
46C                 2:45      0.000
46C                 2:48      0.000
46C                 2:51      0.000
46C                 2:54      0.000
46C                 2:57      0.000
46C                 3:00      0.000
46I                 0:00      0.900
46I                 0:03      1.459
46I                 0:06      2.838
46I                 0:09      4.679
46I                 0:12      6.725
46I                 0:15      8.790
46I                 0:18      10.748
46I                 0:21      12.521
46I                 0:24      14.057
46I                 0:27      15.335
46I                 0:30      16.349
46I                 0:33      17.105
46I                 0:36      17.618
46I                 0:39      17.909
46I                 0:42      18.000
46I                 0:45      17.917
46I                 0:48      17.684
46I                 0:51      17.325
46I                 0:54      16.863
46I                 0:57      16.319
46I                 1:00      15.710
46I                 1:03      15.054
46I                 1:06      14.367
46I                 1:09      13.659
46I                 1:12      12.943
46I                 1:15      12.228
46I                 1:18      11.521
46I                 1:21      10.829
46I                 1:24      10.157
46I                 1:27      9.508
46I                 1:30      8.886
46I                 1:33      8.292
46I                 1:36      7.728
46I                 1:39      7.194
46I                 1:42      6.692
46I                 1:45      6.221
46I                 1:48      5.780
46I                 1:51      5.369
46I                 1:54      4.986
46I                 1:57      4.631
46I                 2:00      4.303
46I                 2:03      3.998
46I                 2:06      3.719
46I                 2:09      3.462
46I                 2:12      3.225
46I                 2:15      3.008
46I                 2:18      2.809
46I                 2:21      2.628
46I                 2:24      2.462
46I                 2:27      2.312
46I                 2:30      2.174
46I                 2:33      2.049
46I                 2:36      1.935
46I                 2:39      1.833
46I                 2:42      1.739
46I                 2:45      1.655
46I                 2:48      1.578
46I                 2:51      1.509
46I                 2:54      1.446
46I                 2:57      1.391
46I                 3:00      1.339
47C                 0:00      0.000
47C                 0:03      0.000
47C                 0:06      0.000
47C                 0:09      0.000
47C                 0:12      0.000
47C                 0:15      0.000
47C                 0:18      0.000
47C                 0:21      0.000
47C                 0:24      0.000
47C                 0:27      0.000
47C                 0:30      0.000
47C                 0:33      0.000
47C                 0:36      0.000
47C                 0:39      0.000
47C                 0:42      0.000
47C                 0:45      0.000
47C                 0:48      0.000
47C                 0:51      0.000
47C                 0:54      0.000
47C                 0:57      0.000
47C                 1:00      0.000
47C                 1:03      0.000
47C                 1:06      0.000
47C                 1:09      0.000
47C                 1:12      0.000
47C                 1:15      0.000
47C                 1:18      0.000
47C                 1:21      0.000
47C                 1:24      0.000
47C                 1:27      0.000
47C                 1:30      0.000
47C                 1:33      0.000
47C                 1:36      0.000
47C                 1:39      0.000
47C                 1:42      0.000
47C                 1:45      0.000
47C                 1:48      0.000
47C                 1:51      0.000
47C                 1:54      0.000
47C                 1:57      0.000
47C                 2:00      0.000
47C                 2:03      0.000
47C                 2:06      0.000
47C                 2:09      0.000
47C                 2:12      0.000
47C                 2:15      0.000
47C                 2:18      0.000
47C                 2:21      0.000
47C                 2:24      0.000
47C                 2:27      0.000
47C                 2:30      0.000
47C                 2:33      0.000
47C                 2:36      0.000
47C                 2:39      0.000
47C                 2:42      0.000
47C                 2:45      0.000
47C                 2:48      0.000
47C                 2:51      0.000
47C                 2:54      0.000
47C                 2:57      0.000
47C                 3:00      0.000
47I                 0:00      0.900
47I                 0:03      1.459
47I                 0:06      2.838
47I                 0:09      4.679
47I                 0:12      6.725
47I                 0:15      8.790
47I                 0:18      10.748
47I                 0:21      12.521
47I                 0:24      14.057
47I                 0:27      15.335
47I                 0:30      16.349
47I                 0:33      17.105
47I                 0:36      17.618
47I                 0:39      17.909
47I                 0:42      18.000
47I                 0:45      17.917
47I                 0:48      17.684
47I                 0:51      17.325
47I                 0:54      16.863
47I                 0:57      16.319
47I                 1:00      15.710
47I                 1:03      15.054
47I                 1:06      14.367
47I                 1:09      13.659
47I                 1:12      12.943
47I                 1:15      12.228
47I                 1:18      11.521
47I                 1:21      10.829
47I                 1:24      10.157
47I                 1:27      9.508
47I                 1:30      8.886
47I                 1:33      8.292
47I                 1:36      7.728
47I                 1:39      7.194
47I                 1:42      6.692
47I                 1:45      6.221
47I                 1:48      5.780
47I                 1:51      5.369
47I                 1:54      4.986
47I                 1:57      4.631
47I                 2:00      4.303
47I                 2:03      3.998
47I                 2:06      3.719
47I                 2:09      3.462
47I                 2:12      3.225
47I                 2:15      3.008
47I                 2:18      2.809
47I                 2:21      2.628
47I                 2:24      2.462
47I                 2:27      2.312
47I                 2:30      2.174
47I                 2:33      2.049
47I                 2:36      1.935
47I                 2:39      1.833
47I                 2:42      1.739
47I                 2:45      1.655
47I                 2:48      1.578
47I                 2:51      1.509
47I                 2:54      1.446
47I                 2:57      1.391
47I                 3:00      1.339
48C                 0:00      0.900
48C                 0:03      1.459
48C                 0:06      2.838
48C                 0:09      4.679
48C                 0:12      6.725
48C                 0:15      8.790
48C                 0:18      10.748
48C                 0:21      12.521
48C                 0:24      14.057
48C                 0:27      15.335
48C                 0:30      16.349
48C                 0:33      17.105
48C                 0:36      17.618
48C                 0:39      17.909
48C                 0:42      18.000
48C                 0:45      17.917
48C                 0:48      17.684
48C                 0:51      17.325
48C                 0:54      16.863
48C                 0:57      16.319
48C                 1:00      15.710
48C                 1:03      15.054
48C                 1:06      14.367
48C                 1:09      13.659
48C                 1:12      12.943
48C                 1:15      12.228
48C                 1:18      11.521
48C                 1:21      10.829
48C                 1:24      10.157
48C                 1:27      9.508
48C                 1:30      8.886
48C                 1:33      8.292
48C                 1:36      7.728
48C                 1:39      7.194
48C                 1:42      6.692
48C                 1:45      6.221
48C                 1:48      5.780
48C                 1:51      5.369
48C                 1:54      4.986
48C                 1:57      4.631
48C                 2:00      4.303
48C                 2:03      3.998
48C                 2:06      3.719
48C                 2:09      3.462
48C                 2:12      3.225
48C                 2:15      3.008
48C                 2:18      2.809
48C                 2:21      2.628
48C                 2:24      2.462
48C                 2:27      2.312
48C                 2:30      2.174
48C                 2:33      2.049
48C                 2:36      1.935
48C                 2:39      1.833
48C                 2:42      1.739
48C                 2:45      1.655
48C                 2:48      1.578
48C                 2:51      1.509
48C                 2:54      1.446
48C                 2:57      1.391
48C                 3:00      1.339
49C                 0:00      0.900
49C                 0:03      1.459
49C                 0:06      2.838
49C                 0:09      4.679
49C                 0:12      6.725
49C                 0:15      8.790
49C                 0:18      10.748
49C                 0:21      12.521
49C                 0:24      14.057
49C                 0:27      15.335
49C                 0:30      16.349
49C                 0:33      17.105
49C                 0:36      17.618
49C                 0:39      17.909
49C                 0:42      18.000
49C                 0:45      17.917
49C                 0:48      17.684
49C                 0:51      17.325
49C                 0:54      16.863
49C                 0:57      16.319
49C                 1:00      15.710
49C                 1:03      15.054
49C                 1:06      14.367
49C                 1:09      13.659
49C                 1:12      12.943
49C                 1:15      12.228
49C                 1:18      11.521
49C                 1:21      10.829
49C                 1:24      10.157
49C                 1:27      9.508
49C                 1:30      8.886
49C                 1:33      8.292
49C                 1:36      7.728
49C                 1:39      7.194
49C                 1:42      6.692
49C                 1:45      6.221
49C                 1:48      5.780
49C                 1:51      5.369
49C                 1:54      4.986
49C                 1:57      4.631
49C                 2:00      4.303
49C                 2:03      3.998
49C                 2:06      3.719
49C                 2:09      3.462
49C                 2:12      3.225
49C                 2:15      3.008
49C                 2:18      2.809
49C                 2:21      2.628
49C                 2:24      2.462
49C                 2:27      2.312
49C                 2:30      2.174
49C                 2:33      2.049
49C                 2:36      1.935
49C                 2:39      1.833
49C                 2:42      1.739
49C                 2:45      1.655
49C                 2:48      1.578
49C                 2:51      1.509
49C                 2:54      1.446
49C                 2:57      1.391
49C                 3:00      1.339
50C                 0:00      0.637
50C                 0:03      1.034
50C                 0:06      2.010
50C                 0:09      3.314
50C                 0:12      4.763
50C                 0:15      6.226
50C                 0:18      7.614
50C                 0:21      8.869
50C                 0:24      9.957
50C                 0:27      10.863
50C                 0:30      11.581
50C                 0:33      12.116
50C                 0:36      12.479
50C                 0:39      12.685
50C                 0:42      12.750
50C                 0:45      12.691
50C                 0:48      12.526
50C                 0:51      12.272
50C                 0:54      11.944
50C                 0:57      11.559
50C                 1:00      11.127
50C                 1:03      10.664
50C                 1:06      10.176
50C                 1:09      9.675
50C                 1:12      9.168
50C                 1:15      8.662
50C                 1:18      8.161
50C                 1:21      7.671
50C                 1:24      7.194
50C                 1:27      6.735
50C                 1:30      6.294
50C                 1:33      5.873
50C                 1:36      5.474
50C                 1:39      5.096
50C                 1:42      4.740
50C                 1:45      4.407
50C                 1:48      4.094
50C                 1:51      3.803
50C                 1:54      3.531
50C                 1:57      3.280
50C                 2:00      3.047
50C                 2:03      2.833
50C                 2:06      2.634
50C                 2:09      2.451
50C                 2:12      2.284
50C                 2:15      2.131
50C                 2:18      1.990
50C                 2:21      1.861
50C                 2:24      1.744
50C                 2:27      1.637
50C                 2:30      1.540
50C                 2:33      1.452
50C                 2:36      1.371
50C                 2:39      1.298
50C                 2:42      1.232
50C                 2:45      1.172
50C                 2:48      1.118
50C                 2:51      1.069
50C                 2:54      1.024
50C                 2:57      0.985
50C                 3:00      0.949
50I                 0:00      0.212
50I                 0:03      0.344
50I                 0:06      0.670
50I                 0:09      1.105
50I                 0:12      1.588
50I                 0:15      2.075
50I                 0:18      2.538
50I                 0:21      2.957
50I                 0:24      3.319
50I                 0:27      3.621
50I                 0:30      3.860
50I                 0:33      4.038
50I                 0:36      4.160
50I                 0:39      4.229
50I                 0:42      4.250
50I                 0:45      4.231
50I                 0:48      4.176
50I                 0:51      4.090
50I                 0:54      3.982
50I                 0:57      3.853
50I                 1:00      3.709
50I                 1:03      3.554
50I                 1:06      3.392
50I                 1:09      3.225
50I                 1:12      3.056
50I                 1:15      2.887
50I                 1:18      2.720
50I                 1:21      2.557
50I                 1:24      2.398
50I                 1:27      2.245
50I                 1:30      2.098
50I                 1:33      1.958
50I                 1:36      1.825
50I                 1:39      1.698
50I                 1:42      1.580
50I                 1:45      1.469
50I                 1:48      1.365
50I                 1:51      1.268
50I                 1:54      1.177
50I                 1:57      1.093
50I                 2:00      1.016
50I                 2:03      0.944
50I                 2:06      0.878
50I                 2:09      0.817
50I                 2:12      0.761
50I                 2:15      0.710
50I                 2:18      0.663
50I                 2:21      0.621
50I                 2:24      0.582
50I                 2:27      0.546
50I                 2:30      0.513
50I                 2:33      0.484
50I                 2:36      0.457
50I                 2:39      0.432
50I                 2:42      0.410
50I                 2:45      0.391
50I                 2:48      0.372
50I                 2:51      0.356
50I                 2:54      0.342
50I                 2:57      0.329
50I                 3:00      0.317
51C                 0:00      0.850
51C                 0:03      1.378
51C                 0:06      2.680
51C                 0:09      4.420
51C                 0:12      6.351
51C                 0:15      8.302
51C                 0:18      10.152
51C                 0:21      11.825
51C                 0:24      13.277
51C                 0:27      14.483
51C                 0:30      15.441
51C                 0:33      16.155
51C                 0:36      16.640
51C                 0:39      16.913
51C                 0:42      17.000
51C                 0:45      16.922
51C                 0:48      16.701
51C                 0:51      16.363
51C                 0:54      15.926
51C                 0:57      15.412
51C                 1:00      14.837
51C                 1:03      14.218
51C                 1:06      13.568
51C                 1:09      12.900
51C                 1:12      12.224
51C                 1:15      11.549
51C                 1:18      10.882
51C                 1:21      10.227
51C                 1:24      9.592
51C                 1:27      8.980
51C                 1:30      8.392
51C                 1:33      7.831
51C                 1:36      7.298
51C                 1:39      6.795
51C                 1:42      6.321
51C                 1:45      5.875
51C                 1:48      5.459
51C                 1:51      5.071
51C                 1:54      4.709
51C                 1:57      4.373
51C                 2:00      4.063
51C                 2:03      3.776
51C                 2:06      3.512
51C                 2:09      3.269
51C                 2:12      3.046
51C                 2:15      2.841
51C                 2:18      2.654
51C                 2:21      2.482
51C                 2:24      2.325
51C                 2:27      2.183
51C                 2:30      2.053
51C                 2:33      1.935
51C                 2:36      1.828
51C                 2:39      1.730
51C                 2:42      1.643
51C                 2:45      1.562
51C                 2:48      1.490
51C                 2:51      1.425
51C                 2:54      1.367
51C                 2:57      1.313
51C                 3:00      1.265
52C                 0:00      1.000
52C                 0:03      1.621
52C                 0:06      3.153
52C                 0:09      5.199
52C                 0:12      7.472
52C                 0:15      9.767
52C                 0:18      11.943
52C                 0:21      13.912
52C                 0:24      15.620
52C                 0:27      17.040
52C                 0:30      18.166
52C                 0:33      19.006
52C                 0:36      19.576
52C                 0:39      19.898
52C                 0:42      20.000
52C                 0:45      19.907
52C                 0:48      19.649
52C                 0:51      19.250
52C                 0:54      18.737
52C                 0:57      18.131
52C                 1:00      17.456
52C                 1:03      16.727
52C                 1:06      15.963
52C                 1:09      15.177
52C                 1:12      14.382
52C                 1:15      13.587
52C                 1:18      12.802
52C                 1:21      12.033
52C                 1:24      11.286
52C                 1:27      10.565
52C                 1:30      9.873
52C                 1:33      9.213
52C                 1:36      8.586
52C                 1:39      7.994
52C                 1:42      7.436
52C                 1:45      6.912
52C                 1:48      6.422
52C                 1:51      5.965
52C                 1:54      5.540
52C                 1:57      5.146
52C                 2:00      4.780
52C                 2:03      4.443
52C                 2:06      4.132
52C                 2:09      3.846
52C                 2:12      3.583
52C                 2:15      3.342
52C                 2:18      3.122
52C                 2:21      2.920
52C                 2:24      2.736
52C                 2:27      2.568
52C                 2:30      2.416
52C                 2:33      2.276
52C                 2:36      2.151
52C                 2:39      2.036
52C                 2:42      1.933
52C                 2:45      1.839
52C                 2:48      1.754
52C                 2:51      1.677
52C                 2:54      1.607
52C                 2:57      1.545
52C                 3:00      1.488
53C                 0:00      0.400
53C                 0:03      0.648
53C                 0:06      1.261
53C                 0:09      2.080
53C                 0:12      2.989
53C                 0:15      3.906
53C                 0:18      4.777
53C                 0:21      5.564
53C                 0:24      6.248
53C                 0:27      6.816
53C                 0:30      7.266
53C                 0:33      7.603
53C                 0:36      7.830
53C                 0:39      7.960
53C                 0:42      8.000
53C                 0:45      7.963
53C                 0:48      7.859
53C                 0:51      7.700
53C                 0:54      7.495
53C                 0:57      7.253
53C                 1:00      6.982
53C                 1:03      6.691
53C                 1:06      6.385
53C                 1:09      6.071
53C                 1:12      5.753
53C                 1:15      5.434
53C                 1:18      5.120
53C                 1:21      4.813
53C                 1:24      4.514
53C                 1:27      4.226
53C                 1:30      3.949
53C                 1:33      3.685
53C                 1:36      3.434
53C                 1:39      3.197
53C                 1:42      2.974
53C                 1:45      2.765
53C                 1:48      2.569
53C                 1:51      2.386
53C                 1:54      2.216
53C                 1:57      2.058
53C                 2:00      1.912
53C                 2:03      1.777
53C                 2:06      1.653
53C                 2:09      1.538
53C                 2:12      1.433
53C                 2:15      1.337
53C                 2:18      1.248
53C                 2:21      1.168
53C                 2:24      1.095
53C                 2:27      1.028
53C                 2:30      0.966
53C                 2:33      0.910
53C                 2:36      0.860
53C                 2:39      0.815
53C                 2:42      0.773
53C                 2:45      0.736
53C                 2:48      0.702
53C                 2:51      0.670
53C                 2:54      0.643
53C                 2:57      0.618
53C                 3:00      0.596
54I                 0:00      0.150
54I                 0:03      0.243
54I                 0:06      0.473
54I                 0:09      0.780
54I                 0:12      1.121
54I                 0:15      1.465
54I                 0:18      1.792
54I                 0:21      2.087
54I                 0:24      2.343
54I                 0:27      2.556
54I                 0:30      2.725
54I                 0:33      2.851
54I                 0:36      2.937
54I                 0:39      2.985
54I                 0:42      3.000
54I                 0:45      2.986
54I                 0:48      2.947
54I                 0:51      2.888
54I                 0:54      2.811
54I                 0:57      2.720
54I                 1:00      2.619
54I                 1:03      2.509
54I                 1:06      2.394
54I                 1:09      2.276
54I                 1:12      2.157
54I                 1:15      2.038
54I                 1:18      1.920
54I                 1:21      1.805
54I                 1:24      1.693
54I                 1:27      1.585
54I                 1:30      1.481
54I                 1:33      1.382
54I                 1:36      1.288
54I                 1:39      1.199
54I                 1:42      1.115
54I                 1:45      1.037
54I                 1:48      0.964
54I                 1:51      0.895
54I                 1:54      0.831
54I                 1:57      0.772
54I                 2:00      0.717
54I                 2:03      0.666
54I                 2:06      0.620
54I                 2:09      0.577
54I                 2:12      0.537
54I                 2:15      0.501
54I                 2:18      0.468
54I                 2:21      0.438
54I                 2:24      0.410
54I                 2:27      0.385
54I                 2:30      0.362
54I                 2:33      0.342
54I                 2:36      0.323
54I                 2:39      0.305
54I                 2:42      0.290
54I                 2:45      0.276
54I                 2:48      0.263
54I                 2:51      0.252
54I                 2:54      0.241
54I                 2:57      0.232
54I                 3:00      0.224
54Ib                0:00      0.450
54Ib                0:03      0.730
54Ib                0:06      1.419
54Ib                0:09      2.340
54Ib                0:12      3.362
54Ib                0:15      4.395
54Ib                0:18      5.375
54Ib                0:21      6.261
54Ib                0:24      7.029
54Ib                0:27      7.668
54Ib                0:30      8.175
54Ib                0:33      8.553
54Ib                0:36      8.809
54Ib                0:39      8.954
54Ib                0:42      9.000
54Ib                0:45      8.959
54Ib                0:48      8.842
54Ib                0:51      8.662
54Ib                0:54      8.431
54Ib                0:57      8.159
54Ib                1:00      7.855
54Ib                1:03      7.527
54Ib                1:06      7.183
54Ib                1:09      6.830
54Ib                1:12      6.471
54Ib                1:15      6.114
54Ib                1:18      5.761
54Ib                1:21      5.415
54Ib                1:24      5.079
54Ib                1:27      4.754
54Ib                1:30      4.443
54Ib                1:33      4.146
54Ib                1:36      3.864
54Ib                1:39      3.598
54Ib                1:42      3.346
54Ib                1:45      3.111
54Ib                1:48      2.890
54Ib                1:51      2.684
54Ib                1:54      2.493
54Ib                1:57      2.316
54Ib                2:00      2.151
54Ib                2:03      2.000
54Ib                2:06      1.859
54Ib                2:09      1.730
54Ib                2:12      1.613
54Ib                2:15      1.504
54Ib                2:18      1.405
54Ib                2:21      1.314
54Ib                2:24      1.231
54Ib                2:27      1.155
54Ib                2:30      1.087
54Ib                2:33      1.024
54Ib                2:36      0.968
54Ib                2:39      0.916
54Ib                2:42      0.870
54Ib                2:45      0.828
54Ib                2:48      0.789
54Ib                2:51      0.754
54Ib                2:54      0.724
54Ib                2:57      0.695
54Ib                3:00      0.670
55C                 0:00      0.600
55C                 0:03      0.973
55C                 0:06      1.892
55C                 0:09      3.119
55C                 0:12      4.483
55C                 0:15      5.860
55C                 0:18      7.166
55C                 0:21      8.347
55C                 0:24      9.371
55C                 0:27      10.223
55C                 0:30      10.899
55C                 0:33      11.403
55C                 0:36      11.745
55C                 0:39      11.939
55C                 0:42      12.000
55C                 0:45      11.944
55C                 0:48      11.790
55C                 0:51      11.550
55C                 0:54      11.242
55C                 0:57      10.879
55C                 1:00      10.473
55C                 1:03      10.036
55C                 1:06      9.578
55C                 1:09      9.106
55C                 1:12      8.629
55C                 1:15      8.152
55C                 1:18      7.681
55C                 1:21      7.220
55C                 1:24      6.771
55C                 1:27      6.338
55C                 1:30      5.924
55C                 1:33      5.528
55C                 1:36      5.152
55C                 1:39      4.796
55C                 1:42      4.462
55C                 1:45      4.147
55C                 1:48      3.853
55C                 1:51      3.579
55C                 1:54      3.324
55C                 1:57      3.087
55C                 2:00      2.868
55C                 2:03      2.666
55C                 2:06      2.479
55C                 2:09      2.308
55C                 2:12      2.150
55C                 2:15      2.006
55C                 2:18      1.873
55C                 2:21      1.752
55C                 2:24      1.641
55C                 2:27      1.541
55C                 2:30      1.450
55C                 2:33      1.366
55C                 2:36      1.290
55C                 2:39      1.222
55C                 2:42      1.159
55C                 2:45      1.103
55C                 2:48      1.052
55C                 2:51      1.006
55C                 2:54      0.965
55C                 2:57      0.927
55C                 3:00      0.893
56C                 0:00      0.600
56C                 0:03      0.973
56C                 0:06      1.892
56C                 0:09      3.119
56C                 0:12      4.483
56C                 0:15      5.860
56C                 0:18      7.166
56C                 0:21      8.347
56C                 0:24      9.371
56C                 0:27      10.223
56C                 0:30      10.899
56C                 0:33      11.403
56C                 0:36      11.745
56C                 0:39      11.939
56C                 0:42      12.000
56C                 0:45      11.944
56C                 0:48      11.790
56C                 0:51      11.550
56C                 0:54      11.242
56C                 0:57      10.879
56C                 1:00      10.473
56C                 1:03      10.036
56C                 1:06      9.578
56C                 1:09      9.106
56C                 1:12      8.629
56C                 1:15      8.152
56C                 1:18      7.681
56C                 1:21      7.220
56C                 1:24      6.771
56C                 1:27      6.338
56C                 1:30      5.924
56C                 1:33      5.528
56C                 1:36      5.152
56C                 1:39      4.796
56C                 1:42      4.462
56C                 1:45      4.147
56C                 1:48      3.853
56C                 1:51      3.579
56C                 1:54      3.324
56C                 1:57      3.087
56C                 2:00      2.868
56C                 2:03      2.666
56C                 2:06      2.479
56C                 2:09      2.308
56C                 2:12      2.150
56C                 2:15      2.006
56C                 2:18      1.873
56C                 2:21      1.752
56C                 2:24      1.641
56C                 2:27      1.541
56C                 2:30      1.450
56C                 2:33      1.366
56C                 2:36      1.290
56C                 2:39      1.222
56C                 2:42      1.159
56C                 2:45      1.103
56C                 2:48      1.052
56C                 2:51      1.006
56C                 2:54      0.965
56C                 2:57      0.927
56C                 3:00      0.893
56I                 0:00      0.200
56I                 0:03      0.324
56I                 0:06      0.630
56I                 0:09      1.040
56I                 0:12      1.494
56I                 0:15      1.954
56I                 0:18      2.389
56I                 0:21      2.783
56I                 0:24      3.124
56I                 0:27      3.408
56I                 0:30      3.633
56I                 0:33      3.801
56I                 0:36      3.915
56I                 0:39      3.979
56I                 0:42      4.000
56I                 0:45      3.982
56I                 0:48      3.930
56I                 0:51      3.850
56I                 0:54      3.748
56I                 0:57      3.627
56I                 1:00      3.491
56I                 1:03      3.345
56I                 1:06      3.192
56I                 1:09      3.035
56I                 1:12      2.877
56I                 1:15      2.717
56I                 1:18      2.561
56I                 1:21      2.406
56I                 1:24      2.257
56I                 1:27      2.113
56I                 1:30      1.974
56I                 1:33      1.843
56I                 1:36      1.718
56I                 1:39      1.599
56I                 1:42      1.487
56I                 1:45      1.383
56I                 1:48      1.284
56I                 1:51      1.193
56I                 1:54      1.108
56I                 1:57      1.029
56I                 2:00      0.956
56I                 2:03      0.888
56I                 2:06      0.827
56I                 2:09      0.769
56I                 2:12      0.717
56I                 2:15      0.668
56I                 2:18      0.625
56I                 2:21      0.584
56I                 2:24      0.547
56I                 2:27      0.513
56I                 2:30      0.483
56I                 2:33      0.456
56I                 2:36      0.430
56I                 2:39      0.407
56I                 2:42      0.387
56I                 2:45      0.367
56I                 2:48      0.350
56I                 2:51      0.336
56I                 2:54      0.322
56I                 2:57      0.309
56I                 3:00      0.297
57C                 0:00      0.000
57C                 0:03      0.000
57C                 0:06      0.000
57C                 0:09      0.000
57C                 0:12      0.000
57C                 0:15      0.000
57C                 0:18      0.000
57C                 0:21      0.000
57C                 0:24      0.000
57C                 0:27      0.000
57C                 0:30      0.000
57C                 0:33      0.000
57C                 0:36      0.000
57C                 0:39      0.000
57C                 0:42      0.000
57C                 0:45      0.000
57C                 0:48      0.000
57C                 0:51      0.000
57C                 0:54      0.000
57C                 0:57      0.000
57C                 1:00      0.000
57C                 1:03      0.000
57C                 1:06      0.000
57C                 1:09      0.000
57C                 1:12      0.000
57C                 1:15      0.000
57C                 1:18      0.000
57C                 1:21      0.000
57C                 1:24      0.000
57C                 1:27      0.000
57C                 1:30      0.000
57C                 1:33      0.000
57C                 1:36      0.000
57C                 1:39      0.000
57C                 1:42      0.000
57C                 1:45      0.000
57C                 1:48      0.000
57C                 1:51      0.000
57C                 1:54      0.000
57C                 1:57      0.000
57C                 2:00      0.000
57C                 2:03      0.000
57C                 2:06      0.000
57C                 2:09      0.000
57C                 2:12      0.000
57C                 2:15      0.000
57C                 2:18      0.000
57C                 2:21      0.000
57C                 2:24      0.000
57C                 2:27      0.000
57C                 2:30      0.000
57C                 2:33      0.000
57C                 2:36      0.000
57C                 2:39      0.000
57C                 2:42      0.000
57C                 2:45      0.000
57C                 2:48      0.000
57C                 2:51      0.000
57C                 2:54      0.000
57C                 2:57      0.000
57C                 3:00      0.000
57I                 0:00      0.850
57I                 0:03      1.378
57I                 0:06      2.680
57I                 0:09      4.420
57I                 0:12      6.351
57I                 0:15      8.302
57I                 0:18      10.152
57I                 0:21      11.825
57I                 0:24      13.277
57I                 0:27      14.483
57I                 0:30      15.441
57I                 0:33      16.155
57I                 0:36      16.640
57I                 0:39      16.913
57I                 0:42      17.000
57I                 0:45      16.922
57I                 0:48      16.701
57I                 0:51      16.363
57I                 0:54      15.926
57I                 0:57      15.412
57I                 1:00      14.837
57I                 1:03      14.218
57I                 1:06      13.568
57I                 1:09      12.900
57I                 1:12      12.224
57I                 1:15      11.549
57I                 1:18      10.882
57I                 1:21      10.227
57I                 1:24      9.592
57I                 1:27      8.980
57I                 1:30      8.392
57I                 1:33      7.831
57I                 1:36      7.298
57I                 1:39      6.795
57I                 1:42      6.321
57I                 1:45      5.875
57I                 1:48      5.459
57I                 1:51      5.071
57I                 1:54      4.709
57I                 1:57      4.373
57I                 2:00      4.063
57I                 2:03      3.776
57I                 2:06      3.512
57I                 2:09      3.269
57I                 2:12      3.046
57I                 2:15      2.841
57I                 2:18      2.654
57I                 2:21      2.482
57I                 2:24      2.325
57I                 2:27      2.183
57I                 2:30      2.053
57I                 2:33      1.935
57I                 2:36      1.828
57I                 2:39      1.730
57I                 2:42      1.643
57I                 2:45      1.562
57I                 2:48      1.490
57I                 2:51      1.425
57I                 2:54      1.367
57I                 2:57      1.313
57I                 3:00      1.265
58C                 0:00      0.300
58C                 0:03      0.486
58C                 0:06      0.946
58C                 0:09      1.560
58C                 0:12      2.241
58C                 0:15      2.930
58C                 0:18      3.583
58C                 0:21      4.173
58C                 0:24      4.686
58C                 0:27      5.112
58C                 0:30      5.450
58C                 0:33      5.702
58C                 0:36      5.872
58C                 0:39      5.970
58C                 0:42      6.000
58C                 0:45      5.973
58C                 0:48      5.894
58C                 0:51      5.775
58C                 0:54      5.621
58C                 0:57      5.439
58C                 1:00      5.237
58C                 1:03      5.018
58C                 1:06      4.789
58C                 1:09      4.553
58C                 1:12      4.314
58C                 1:15      4.076
58C                 1:18      3.841
58C                 1:21      3.610
58C                 1:24      3.385
58C                 1:27      3.170
58C                 1:30      2.962
58C                 1:33      2.764
58C                 1:36      2.576
58C                 1:39      2.398
58C                 1:42      2.231
58C                 1:45      2.074
58C                 1:48      1.927
58C                 1:51      1.790
58C                 1:54      1.662
58C                 1:57      1.544
58C                 2:00      1.434
58C                 2:03      1.333
58C                 2:06      1.240
58C                 2:09      1.154
58C                 2:12      1.075
58C                 2:15      1.002
58C                 2:18      0.936
58C                 2:21      0.876
58C                 2:24      0.821
58C                 2:27      0.770
58C                 2:30      0.725
58C                 2:33      0.683
58C                 2:36      0.645
58C                 2:39      0.611
58C                 2:42      0.580
58C                 2:45      0.551
58C                 2:48      0.526
58C                 2:51      0.503
58C                 2:54      0.482
58C                 2:57      0.464
58C                 3:00      0.447
58I                 0:00      0.100
58I                 0:03      0.162
58I                 0:06      0.316
58I                 0:09      0.520
58I                 0:12      0.747
58I                 0:15      0.977
58I                 0:18      1.194
58I                 0:21      1.391
58I                 0:24      1.562
58I                 0:27      1.704
58I                 0:30      1.817
58I                 0:33      1.901
58I                 0:36      1.958
58I                 0:39      1.990
58I                 0:42      2.000
58I                 0:45      1.991
58I                 0:48      1.965
58I                 0:51      1.925
58I                 0:54      1.873
58I                 0:57      1.813
58I                 1:00      1.746
58I                 1:03      1.673
58I                 1:06      1.597
58I                 1:09      1.518
58I                 1:12      1.438
58I                 1:15      1.359
58I                 1:18      1.280
58I                 1:21      1.204
58I                 1:24      1.129
58I                 1:27      1.056
58I                 1:30      0.988
58I                 1:33      0.921
58I                 1:36      0.859
58I                 1:39      0.799
58I                 1:42      0.744
58I                 1:45      0.691
58I                 1:48      0.642
58I                 1:51      0.597
58I                 1:54      0.554
58I                 1:57      0.514
58I                 2:00      0.478
58I                 2:03      0.445
58I                 2:06      0.413
58I                 2:09      0.385
58I                 2:12      0.358
58I                 2:15      0.334
58I                 2:18      0.312
58I                 2:21      0.292
58I                 2:24      0.274
58I                 2:27      0.257
58I                 2:30      0.241
58I                 2:33      0.228
58I                 2:36      0.215
58I                 2:39      0.203
58I                 2:42      0.193
58I                 2:45      0.184
58I                 2:48      0.175
58I                 2:51      0.168
58I                 2:54      0.161
58I                 2:57      0.154
58I                 3:00      0.149
59C                 0:00      0.600
59C                 0:03      0.973
59C                 0:06      1.892
59C                 0:09      3.119
59C                 0:12      4.483
59C                 0:15      5.860
59C                 0:18      7.166
59C                 0:21      8.347
59C                 0:24      9.371
59C                 0:27      10.223
59C                 0:30      10.899
59C                 0:33      11.403
59C                 0:36      11.745
59C                 0:39      11.939
59C                 0:42      12.000
59C                 0:45      11.944
59C                 0:48      11.790
59C                 0:51      11.550
59C                 0:54      11.242
59C                 0:57      10.879
59C                 1:00      10.473
59C                 1:03      10.036
59C                 1:06      9.578
59C                 1:09      9.106
59C                 1:12      8.629
59C                 1:15      8.152
59C                 1:18      7.681
59C                 1:21      7.220
59C                 1:24      6.771
59C                 1:27      6.338
59C                 1:30      5.924
59C                 1:33      5.528
59C                 1:36      5.152
59C                 1:39      4.796
59C                 1:42      4.462
59C                 1:45      4.147
59C                 1:48      3.853
59C                 1:51      3.579
59C                 1:54      3.324
59C                 1:57      3.087
59C                 2:00      2.868
59C                 2:03      2.666
59C                 2:06      2.479
59C                 2:09      2.308
59C                 2:12      2.150
59C                 2:15      2.006
59C                 2:18      1.873
59C                 2:21      1.752
59C                 2:24      1.641
59C                 2:27      1.541
59C                 2:30      1.450
59C                 2:33      1.366
59C                 2:36      1.290
59C                 2:39      1.222
59C                 2:42      1.159
59C                 2:45      1.103
59C                 2:48      1.052
59C                 2:51      1.006
59C                 2:54      0.965
59C                 2:57      0.927
59C                 3:00      0.893
59I                 0:00      0.200
59I                 0:03      0.324
59I                 0:06      0.630
59I                 0:09      1.040
59I                 0:12      1.494
59I                 0:15      1.954
59I                 0:18      2.389
59I                 0:21      2.783
59I                 0:24      3.124
59I                 0:27      3.408
59I                 0:30      3.633
59I                 0:33      3.801
59I                 0:36      3.915
59I                 0:39      3.979
59I                 0:42      4.000
59I                 0:45      3.982
59I                 0:48      3.930
59I                 0:51      3.850
59I                 0:54      3.748
59I                 0:57      3.627
59I                 1:00      3.491
59I                 1:03      3.345
59I                 1:06      3.192
59I                 1:09      3.035
59I                 1:12      2.877
59I                 1:15      2.717
59I                 1:18      2.561
59I                 1:21      2.406
59I                 1:24      2.257
59I                 1:27      2.113
59I                 1:30      1.974
59I                 1:33      1.843
59I                 1:36      1.718
59I                 1:39      1.599
59I                 1:42      1.487
59I                 1:45      1.383
59I                 1:48      1.284
59I                 1:51      1.193
59I                 1:54      1.108
59I                 1:57      1.029
59I                 2:00      0.956
59I                 2:03      0.888
59I                 2:06      0.827
59I                 2:09      0.769
59I                 2:12      0.717
59I                 2:15      0.668
59I                 2:18      0.625
59I                 2:21      0.584
59I                 2:24      0.547
59I                 2:27      0.513
59I                 2:30      0.483
59I                 2:33      0.456
59I                 2:36      0.430
59I                 2:39      0.407
59I                 2:42      0.387
59I                 2:45      0.367
59I                 2:48      0.350
59I                 2:51      0.336
59I                 2:54      0.322
59I                 2:57      0.309
59I                 3:00      0.297
60C                 0:00      -0.000
60C                 0:03      -0.000
60C                 0:06      -0.000
60C                 0:09      -0.000
60C                 0:12      -0.000
60C                 0:15      -0.000
60C                 0:18      -0.000
60C                 0:21      -0.000
60C                 0:24      -0.000
60C                 0:27      -0.000
60C                 0:30      -0.000
60C                 0:33      -0.000
60C                 0:36      -0.000
60C                 0:39      -0.000
60C                 0:42      -0.000
60C                 0:45      -0.000
60C                 0:48      -0.000
60C                 0:51      -0.000
60C                 0:54      -0.000
60C                 0:57      -0.000
60C                 1:00      -0.000
60C                 1:03      -0.000
60C                 1:06      -0.000
60C                 1:09      -0.000
60C                 1:12      -0.000
60C                 1:15      -0.000
60C                 1:18      -0.000
60C                 1:21      -0.000
60C                 1:24      -0.000
60C                 1:27      -0.000
60C                 1:30      -0.000
60C                 1:33      -0.000
60C                 1:36      -0.000
60C                 1:39      -0.000
60C                 1:42      -0.000
60C                 1:45      -0.000
60C                 1:48      -0.000
60C                 1:51      -0.000
60C                 1:54      -0.000
60C                 1:57      -0.000
60C                 2:00      -0.000
60C                 2:03      -0.000
60C                 2:06      -0.000
60C                 2:09      -0.000
60C                 2:12      -0.000
60C                 2:15      -0.000
60C                 2:18      -0.000
60C                 2:21      -0.000
60C                 2:24      -0.000
60C                 2:27      -0.000
60C                 2:30      -0.000
60C                 2:33      -0.000
60C                 2:36      -0.000
60C                 2:39      -0.000
60C                 2:42      -0.000
60C                 2:45      -0.000
60C                 2:48      -0.000
60C                 2:51      -0.000
60C                 2:54      -0.000
60C                 2:57      -0.000
60C                 3:00      -0.000
60I                 0:00      0.900
60I                 0:03      1.459
60I                 0:06      2.838
60I                 0:09      4.679
60I                 0:12      6.725
60I                 0:15      8.790
60I                 0:18      10.748
60I                 0:21      12.521
60I                 0:24      14.057
60I                 0:27      15.335
60I                 0:30      16.349
60I                 0:33      17.105
60I                 0:36      17.618
60I                 0:39      17.909
60I                 0:42      18.000
60I                 0:45      17.917
60I                 0:48      17.684
60I                 0:51      17.325
60I                 0:54      16.863
60I                 0:57      16.319
60I                 1:00      15.710
60I                 1:03      15.054
60I                 1:06      14.367
60I                 1:09      13.659
60I                 1:12      12.943
60I                 1:15      12.228
60I                 1:18      11.521
60I                 1:21      10.829
60I                 1:24      10.157
60I                 1:27      9.508
60I                 1:30      8.886
60I                 1:33      8.292
60I                 1:36      7.728
60I                 1:39      7.194
60I                 1:42      6.692
60I                 1:45      6.221
60I                 1:48      5.780
60I                 1:51      5.369
60I                 1:54      4.986
60I                 1:57      4.631
60I                 2:00      4.303
60I                 2:03      3.998
60I                 2:06      3.719
60I                 2:09      3.462
60I                 2:12      3.225
60I                 2:15      3.008
60I                 2:18      2.809
60I                 2:21      2.628
60I                 2:24      2.462
60I                 2:27      2.312
60I                 2:30      2.174
60I                 2:33      2.049
60I                 2:36      1.935
60I                 2:39      1.833
60I                 2:42      1.739
60I                 2:45      1.655
60I                 2:48      1.578
60I                 2:51      1.509
60I                 2:54      1.446
60I                 2:57      1.391
60I                 3:00      1.339
61C                 0:00      0.650
61C                 0:03      1.054
61C                 0:06      2.050
61C                 0:09      3.380
61C                 0:12      4.857
61C                 0:15      6.348
61C                 0:18      7.763
61C                 0:21      9.043
61C                 0:24      10.152
61C                 0:27      11.075
61C                 0:30      11.808
61C                 0:33      12.354
61C                 0:36      12.724
61C                 0:39      12.934
61C                 0:42      13.000
61C                 0:45      12.940
61C                 0:48      12.772
61C                 0:51      12.512
61C                 0:54      12.179
61C                 0:57      11.786
61C                 1:00      11.346
61C                 1:03      10.873
61C                 1:06      10.376
61C                 1:09      9.865
61C                 1:12      9.348
61C                 1:15      8.832
61C                 1:18      8.321
61C                 1:21      7.821
61C                 1:24      7.335
61C                 1:27      6.867
61C                 1:30      6.418
61C                 1:33      5.989
61C                 1:36      5.581
61C                 1:39      5.196
61C                 1:42      4.833
61C                 1:45      4.493
61C                 1:48      4.175
61C                 1:51      3.877
61C                 1:54      3.601
61C                 1:57      3.345
61C                 2:00      3.107
61C                 2:03      2.888
61C                 2:06      2.686
61C                 2:09      2.500
61C                 2:12      2.329
61C                 2:15      2.172
61C                 2:18      2.029
61C                 2:21      1.898
61C                 2:24      1.778
61C                 2:27      1.669
61C                 2:30      1.570
61C                 2:33      1.480
61C                 2:36      1.398
61C                 2:39      1.323
61C                 2:42      1.256
61C                 2:45      1.195
61C                 2:48      1.140
61C                 2:51      1.090
61C                 2:54      1.045
61C                 2:57      1.004
61C                 3:00      0.968
62C                 0:00      0.000
62C                 0:03      0.000
62C                 0:06      0.000
62C                 0:09      0.000
62C                 0:12      0.000
62C                 0:15      0.000
62C                 0:18      0.000
62C                 0:21      0.000
62C                 0:24      0.000
62C                 0:27      0.000
62C                 0:30      0.000
62C                 0:33      0.000
62C                 0:36      0.000
62C                 0:39      0.000
62C                 0:42      0.000
62C                 0:45      0.000
62C                 0:48      0.000
62C                 0:51      0.000
62C                 0:54      0.000
62C                 0:57      0.000
62C                 1:00      0.000
62C                 1:03      0.000
62C                 1:06      0.000
62C                 1:09      0.000
62C                 1:12      0.000
62C                 1:15      0.000
62C                 1:18      0.000
62C                 1:21      0.000
62C                 1:24      0.000
62C                 1:27      0.000
62C                 1:30      0.000
62C                 1:33      0.000
62C                 1:36      0.000
62C                 1:39      0.000
62C                 1:42      0.000
62C                 1:45      0.000
62C                 1:48      0.000
62C                 1:51      0.000
62C                 1:54      0.000
62C                 1:57      0.000
62C                 2:00      0.000
62C                 2:03      0.000
62C                 2:06      0.000
62C                 2:09      0.000
62C                 2:12      0.000
62C                 2:15      0.000
62C                 2:18      0.000
62C                 2:21      0.000
62C                 2:24      0.000
62C                 2:27      0.000
62C                 2:30      0.000
62C                 2:33      0.000
62C                 2:36      0.000
62C                 2:39      0.000
62C                 2:42      0.000
62C                 2:45      0.000
62C                 2:48      0.000
62C                 2:51      0.000
62C                 2:54      0.000
62C                 2:57      0.000
62C                 3:00      0.000
62I                 0:00      0.650
62I                 0:03      1.054
62I                 0:06      2.050
62I                 0:09      3.380
62I                 0:12      4.857
62I                 0:15      6.348
62I                 0:18      7.763
62I                 0:21      9.043
62I                 0:24      10.152
62I                 0:27      11.075
62I                 0:30      11.808
62I                 0:33      12.354
62I                 0:36      12.724
62I                 0:39      12.934
62I                 0:42      13.000
62I                 0:45      12.940
62I                 0:48      12.772
62I                 0:51      12.512
62I                 0:54      12.179
62I                 0:57      11.786
62I                 1:00      11.346
62I                 1:03      10.873
62I                 1:06      10.376
62I                 1:09      9.865
62I                 1:12      9.348
62I                 1:15      8.832
62I                 1:18      8.321
62I                 1:21      7.821
62I                 1:24      7.335
62I                 1:27      6.867
62I                 1:30      6.418
62I                 1:33      5.989
62I                 1:36      5.581
62I                 1:39      5.196
62I                 1:42      4.833
62I                 1:45      4.493
62I                 1:48      4.175
62I                 1:51      3.877
62I                 1:54      3.601
62I                 1:57      3.345
62I                 2:00      3.107
62I                 2:03      2.888
62I                 2:06      2.686
62I                 2:09      2.500
62I                 2:12      2.329
62I                 2:15      2.172
62I                 2:18      2.029
62I                 2:21      1.898
62I                 2:24      1.778
62I                 2:27      1.669
62I                 2:30      1.570
62I                 2:33      1.480
62I                 2:36      1.398
62I                 2:39      1.323
62I                 2:42      1.256
62I                 2:45      1.195
62I                 2:48      1.140
62I                 2:51      1.090
62I                 2:54      1.045
62I                 2:57      1.004
62I                 3:00      0.968
63C                 0:00      0.487
63C                 0:03      0.790
63C                 0:06      1.537
63C                 0:09      2.535
63C                 0:12      3.643
63C                 0:15      4.761
63C                 0:18      5.822
63C                 0:21      6.782
63C                 0:24      7.614
63C                 0:27      8.307
63C                 0:30      8.856
63C                 0:33      9.265
63C                 0:36      9.543
63C                 0:39      9.700
63C                 0:42      9.750
63C                 0:45      9.705
63C                 0:48      9.579
63C                 0:51      9.384
63C                 0:54      9.134
63C                 0:57      8.839
63C                 1:00      8.509
63C                 1:03      8.155
63C                 1:06      7.782
63C                 1:09      7.399
63C                 1:12      7.011
63C                 1:15      6.623
63C                 1:18      6.241
63C                 1:21      5.866
63C                 1:24      5.502
63C                 1:27      5.150
63C                 1:30      4.813
63C                 1:33      4.492
63C                 1:36      4.186
63C                 1:39      3.897
63C                 1:42      3.625
63C                 1:45      3.369
63C                 1:48      3.131
63C                 1:51      2.908
63C                 1:54      2.700
63C                 1:57      2.509
63C                 2:00      2.330
63C                 2:03      2.166
63C                 2:06      2.014
63C                 2:09      1.875
63C                 2:12      1.747
63C                 2:15      1.629
63C                 2:18      1.522
63C                 2:21      1.423
63C                 2:24      1.334
63C                 2:27      1.252
63C                 2:30      1.177
63C                 2:33      1.110
63C                 2:36      1.048
63C                 2:39      0.993
63C                 2:42      0.942
63C                 2:45      0.896
63C                 2:48      0.855
63C                 2:51      0.818
63C                 2:54      0.783
63C                 2:57      0.753
63C                 3:00      0.726
63I                 0:00      0.163
63I                 0:03      0.264
63I                 0:06      0.512
63I                 0:09      0.845
63I                 0:12      1.214
63I                 0:15      1.587
63I                 0:18      1.940
63I                 0:21      2.260
63I                 0:24      2.538
63I                 0:27      2.769
63I                 0:30      2.952
63I                 0:33      3.088
63I                 0:36      3.181
63I                 0:39      3.233
63I                 0:42      3.250
63I                 0:45      3.235
63I                 0:48      3.193
63I                 0:51      3.128
63I                 0:54      3.045
63I                 0:57      2.946
63I                 1:00      2.837
63I                 1:03      2.718
63I                 1:06      2.594
63I                 1:09      2.466
63I                 1:12      2.337
63I                 1:15      2.208
63I                 1:18      2.080
63I                 1:21      1.956
63I                 1:24      1.834
63I                 1:27      1.716
63I                 1:30      1.605
63I                 1:33      1.497
63I                 1:36      1.395
63I                 1:39      1.299
63I                 1:42      1.208
63I                 1:45      1.123
63I                 1:48      1.044
63I                 1:51      0.970
63I                 1:54      0.900
63I                 1:57      0.836
63I                 2:00      0.777
63I                 2:03      0.722
63I                 2:06      0.671
63I                 2:09      0.625
63I                 2:12      0.583
63I                 2:15      0.543
63I                 2:18      0.507
63I                 2:21      0.474
63I                 2:24      0.445
63I                 2:27      0.417
63I                 2:30      0.393
63I                 2:33      0.370
63I                 2:36      0.349
63I                 2:39      0.331
63I                 2:42      0.314
63I                 2:45      0.299
63I                 2:48      0.285
63I                 2:51      0.273
63I                 2:54      0.261
63I                 2:57      0.251
63I                 3:00      0.242
64C                 0:00      0.487
64C                 0:03      0.790
64C                 0:06      1.537
64C                 0:09      2.535
64C                 0:12      3.643
64C                 0:15      4.761
64C                 0:18      5.822
64C                 0:21      6.782
64C                 0:24      7.614
64C                 0:27      8.307
64C                 0:30      8.856
64C                 0:33      9.265
64C                 0:36      9.543
64C                 0:39      9.700
64C                 0:42      9.750
64C                 0:45      9.705
64C                 0:48      9.579
64C                 0:51      9.384
64C                 0:54      9.134
64C                 0:57      8.839
64C                 1:00      8.509
64C                 1:03      8.155
64C                 1:06      7.782
64C                 1:09      7.399
64C                 1:12      7.011
64C                 1:15      6.623
64C                 1:18      6.241
64C                 1:21      5.866
64C                 1:24      5.502
64C                 1:27      5.150
64C                 1:30      4.813
64C                 1:33      4.492
64C                 1:36      4.186
64C                 1:39      3.897
64C                 1:42      3.625
64C                 1:45      3.369
64C                 1:48      3.131
64C                 1:51      2.908
64C                 1:54      2.700
64C                 1:57      2.509
64C                 2:00      2.330
64C                 2:03      2.166
64C                 2:06      2.014
64C                 2:09      1.875
64C                 2:12      1.747
64C                 2:15      1.629
64C                 2:18      1.522
64C                 2:21      1.423
64C                 2:24      1.334
64C                 2:27      1.252
64C                 2:30      1.177
64C                 2:33      1.110
64C                 2:36      1.048
64C                 2:39      0.993
64C                 2:42      0.942
64C                 2:45      0.896
64C                 2:48      0.855
64C                 2:51      0.818
64C                 2:54      0.783
64C                 2:57      0.753
64C                 3:00      0.726
64I                 0:00      0.163
64I                 0:03      0.264
64I                 0:06      0.512
64I                 0:09      0.845
64I                 0:12      1.214
64I                 0:15      1.587
64I                 0:18      1.940
64I                 0:21      2.260
64I                 0:24      2.538
64I                 0:27      2.769
64I                 0:30      2.952
64I                 0:33      3.088
64I                 0:36      3.181
64I                 0:39      3.233
64I                 0:42      3.250
64I                 0:45      3.235
64I                 0:48      3.193
64I                 0:51      3.128
64I                 0:54      3.045
64I                 0:57      2.946
64I                 1:00      2.837
64I                 1:03      2.718
64I                 1:06      2.594
64I                 1:09      2.466
64I                 1:12      2.337
64I                 1:15      2.208
64I                 1:18      2.080
64I                 1:21      1.956
64I                 1:24      1.834
64I                 1:27      1.716
64I                 1:30      1.605
64I                 1:33      1.497
64I                 1:36      1.395
64I                 1:39      1.299
64I                 1:42      1.208
64I                 1:45      1.123
64I                 1:48      1.044
64I                 1:51      0.970
64I                 1:54      0.900
64I                 1:57      0.836
64I                 2:00      0.777
64I                 2:03      0.722
64I                 2:06      0.671
64I                 2:09      0.625
64I                 2:12      0.583
64I                 2:15      0.543
64I                 2:18      0.507
64I                 2:21      0.474
64I                 2:24      0.445
64I                 2:27      0.417
64I                 2:30      0.393
64I                 2:33      0.370
64I                 2:36      0.349
64I                 2:39      0.331
64I                 2:42      0.314
64I                 2:45      0.299
64I                 2:48      0.285
64I                 2:51      0.273
64I                 2:54      0.261
64I                 2:57      0.251
64I                 3:00      0.242
65C                 0:00      0.487
65C                 0:03      0.790
65C                 0:06      1.537
65C                 0:09      2.535
65C                 0:12      3.643
65C                 0:15      4.761
65C                 0:18      5.822
65C                 0:21      6.782
65C                 0:24      7.614
65C                 0:27      8.307
65C                 0:30      8.856
65C                 0:33      9.265
65C                 0:36      9.543
65C                 0:39      9.700
65C                 0:42      9.750
65C                 0:45      9.705
65C                 0:48      9.579
65C                 0:51      9.384
65C                 0:54      9.134
65C                 0:57      8.839
65C                 1:00      8.509
65C                 1:03      8.155
65C                 1:06      7.782
65C                 1:09      7.399
65C                 1:12      7.011
65C                 1:15      6.623
65C                 1:18      6.241
65C                 1:21      5.866
65C                 1:24      5.502
65C                 1:27      5.150
65C                 1:30      4.813
65C                 1:33      4.492
65C                 1:36      4.186
65C                 1:39      3.897
65C                 1:42      3.625
65C                 1:45      3.369
65C                 1:48      3.131
65C                 1:51      2.908
65C                 1:54      2.700
65C                 1:57      2.509
65C                 2:00      2.330
65C                 2:03      2.166
65C                 2:06      2.014
65C                 2:09      1.875
65C                 2:12      1.747
65C                 2:15      1.629
65C                 2:18      1.522
65C                 2:21      1.423
65C                 2:24      1.334
65C                 2:27      1.252
65C                 2:30      1.177
65C                 2:33      1.110
65C                 2:36      1.048
65C                 2:39      0.993
65C                 2:42      0.942
65C                 2:45      0.896
65C                 2:48      0.855
65C                 2:51      0.818
65C                 2:54      0.783
65C                 2:57      0.753
65C                 3:00      0.726
65I                 0:00      0.163
65I                 0:03      0.264
65I                 0:06      0.512
65I                 0:09      0.845
65I                 0:12      1.214
65I                 0:15      1.587
65I                 0:18      1.940
65I                 0:21      2.260
65I                 0:24      2.538
65I                 0:27      2.769
65I                 0:30      2.952
65I                 0:33      3.088
65I                 0:36      3.181
65I                 0:39      3.233
65I                 0:42      3.250
65I                 0:45      3.235
65I                 0:48      3.193
65I                 0:51      3.128
65I                 0:54      3.045
65I                 0:57      2.946
65I                 1:00      2.837
65I                 1:03      2.718
65I                 1:06      2.594
65I                 1:09      2.466
65I                 1:12      2.337
65I                 1:15      2.208
65I                 1:18      2.080
65I                 1:21      1.956
65I                 1:24      1.834
65I                 1:27      1.716
65I                 1:30      1.605
65I                 1:33      1.497
65I                 1:36      1.395
65I                 1:39      1.299
65I                 1:42      1.208
65I                 1:45      1.123
65I                 1:48      1.044
65I                 1:51      0.970
65I                 1:54      0.900
65I                 1:57      0.836
65I                 2:00      0.777
65I                 2:03      0.722
65I                 2:06      0.671
65I                 2:09      0.625
65I                 2:12      0.583
65I                 2:15      0.543
65I                 2:18      0.507
65I                 2:21      0.474
65I                 2:24      0.445
65I                 2:27      0.417
65I                 2:30      0.393
65I                 2:33      0.370
65I                 2:36      0.349
65I                 2:39      0.331
65I                 2:42      0.314
65I                 2:45      0.299
65I                 2:48      0.285
65I                 2:51      0.273
65I                 2:54      0.261
65I                 2:57      0.251
65I                 3:00      0.242
66C                 0:00      0.487
66C                 0:03      0.790
66C                 0:06      1.537
66C                 0:09      2.535
66C                 0:12      3.643
66C                 0:15      4.761
66C                 0:18      5.822
66C                 0:21      6.782
66C                 0:24      7.614
66C                 0:27      8.307
66C                 0:30      8.856
66C                 0:33      9.265
66C                 0:36      9.543
66C                 0:39      9.700
66C                 0:42      9.750
66C                 0:45      9.705
66C                 0:48      9.579
66C                 0:51      9.384
66C                 0:54      9.134
66C                 0:57      8.839
66C                 1:00      8.509
66C                 1:03      8.155
66C                 1:06      7.782
66C                 1:09      7.399
66C                 1:12      7.011
66C                 1:15      6.623
66C                 1:18      6.241
66C                 1:21      5.866
66C                 1:24      5.502
66C                 1:27      5.150
66C                 1:30      4.813
66C                 1:33      4.492
66C                 1:36      4.186
66C                 1:39      3.897
66C                 1:42      3.625
66C                 1:45      3.369
66C                 1:48      3.131
66C                 1:51      2.908
66C                 1:54      2.700
66C                 1:57      2.509
66C                 2:00      2.330
66C                 2:03      2.166
66C                 2:06      2.014
66C                 2:09      1.875
66C                 2:12      1.747
66C                 2:15      1.629
66C                 2:18      1.522
66C                 2:21      1.423
66C                 2:24      1.334
66C                 2:27      1.252
66C                 2:30      1.177
66C                 2:33      1.110
66C                 2:36      1.048
66C                 2:39      0.993
66C                 2:42      0.942
66C                 2:45      0.896
66C                 2:48      0.855
66C                 2:51      0.818
66C                 2:54      0.783
66C                 2:57      0.753
66C                 3:00      0.726
66I                 0:00      0.163
66I                 0:03      0.264
66I                 0:06      0.512
66I                 0:09      0.845
66I                 0:12      1.214
66I                 0:15      1.587
66I                 0:18      1.940
66I                 0:21      2.260
66I                 0:24      2.538
66I                 0:27      2.769
66I                 0:30      2.952
66I                 0:33      3.088
66I                 0:36      3.181
66I                 0:39      3.233
66I                 0:42      3.250
66I                 0:45      3.235
66I                 0:48      3.193
66I                 0:51      3.128
66I                 0:54      3.045
66I                 0:57      2.946
66I                 1:00      2.837
66I                 1:03      2.718
66I                 1:06      2.594
66I                 1:09      2.466
66I                 1:12      2.337
66I                 1:15      2.208
66I                 1:18      2.080
66I                 1:21      1.956
66I                 1:24      1.834
66I                 1:27      1.716
66I                 1:30      1.605
66I                 1:33      1.497
66I                 1:36      1.395
66I                 1:39      1.299
66I                 1:42      1.208
66I                 1:45      1.123
66I                 1:48      1.044
66I                 1:51      0.970
66I                 1:54      0.900
66I                 1:57      0.836
66I                 2:00      0.777
66I                 2:03      0.722
66I                 2:06      0.671
66I                 2:09      0.625
66I                 2:12      0.583
66I                 2:15      0.543
66I                 2:18      0.507
66I                 2:21      0.474
66I                 2:24      0.445
66I                 2:27      0.417
66I                 2:30      0.393
66I                 2:33      0.370
66I                 2:36      0.349
66I                 2:39      0.331
66I                 2:42      0.314
66I                 2:45      0.299
66I                 2:48      0.285
66I                 2:51      0.273
66I                 2:54      0.261
66I                 2:57      0.251
66I                 3:00      0.242
67C                 0:00      0.650
67C                 0:03      1.054
67C                 0:06      2.050
67C                 0:09      3.380
67C                 0:12      4.857
67C                 0:15      6.348
67C                 0:18      7.763
67C                 0:21      9.043
67C                 0:24      10.152
67C                 0:27      11.075
67C                 0:30      11.808
67C                 0:33      12.354
67C                 0:36      12.724
67C                 0:39      12.934
67C                 0:42      13.000
67C                 0:45      12.940
67C                 0:48      12.772
67C                 0:51      12.512
67C                 0:54      12.179
67C                 0:57      11.786
67C                 1:00      11.346
67C                 1:03      10.873
67C                 1:06      10.376
67C                 1:09      9.865
67C                 1:12      9.348
67C                 1:15      8.832
67C                 1:18      8.321
67C                 1:21      7.821
67C                 1:24      7.335
67C                 1:27      6.867
67C                 1:30      6.418
67C                 1:33      5.989
67C                 1:36      5.581
67C                 1:39      5.196
67C                 1:42      4.833
67C                 1:45      4.493
67C                 1:48      4.175
67C                 1:51      3.877
67C                 1:54      3.601
67C                 1:57      3.345
67C                 2:00      3.107
67C                 2:03      2.888
67C                 2:06      2.686
67C                 2:09      2.500
67C                 2:12      2.329
67C                 2:15      2.172
67C                 2:18      2.029
67C                 2:21      1.898
67C                 2:24      1.778
67C                 2:27      1.669
67C                 2:30      1.570
67C                 2:33      1.480
67C                 2:36      1.398
67C                 2:39      1.323
67C                 2:42      1.256
67C                 2:45      1.195
67C                 2:48      1.140
67C                 2:51      1.090
67C                 2:54      1.045
67C                 2:57      1.004
67C                 3:00      0.968
68C                 0:00      0.450
68C                 0:03      0.730
68C                 0:06      1.419
68C                 0:09      2.340
68C                 0:12      3.362
68C                 0:15      4.395
68C                 0:18      5.375
68C                 0:21      6.261
68C                 0:24      7.029
68C                 0:27      7.668
68C                 0:30      8.175
68C                 0:33      8.553
68C                 0:36      8.809
68C                 0:39      8.954
68C                 0:42      9.000
68C                 0:45      8.959
68C                 0:48      8.842
68C                 0:51      8.662
68C                 0:54      8.431
68C                 0:57      8.159
68C                 1:00      7.855
68C                 1:03      7.527
68C                 1:06      7.183
68C                 1:09      6.830
68C                 1:12      6.471
68C                 1:15      6.114
68C                 1:18      5.761
68C                 1:21      5.415
68C                 1:24      5.079
68C                 1:27      4.754
68C                 1:30      4.443
68C                 1:33      4.146
68C                 1:36      3.864
68C                 1:39      3.598
68C                 1:42      3.346
68C                 1:45      3.111
68C                 1:48      2.890
68C                 1:51      2.684
68C                 1:54      2.493
68C                 1:57      2.316
68C                 2:00      2.151
68C                 2:03      2.000
68C                 2:06      1.859
68C                 2:09      1.730
68C                 2:12      1.613
68C                 2:15      1.504
68C                 2:18      1.405
68C                 2:21      1.314
68C                 2:24      1.231
68C                 2:27      1.155
68C                 2:30      1.087
68C                 2:33      1.024
68C                 2:36      0.968
68C                 2:39      0.916
68C                 2:42      0.870
68C                 2:45      0.828
68C                 2:48      0.789
68C                 2:51      0.754
68C                 2:54      0.724
68C                 2:57      0.695
68C                 3:00      0.670
69C                 0:00      0.400
69C                 0:03      0.648
69C                 0:06      1.261
69C                 0:09      2.080
69C                 0:12      2.989
69C                 0:15      3.906
69C                 0:18      4.777
69C                 0:21      5.564
69C                 0:24      6.248
69C                 0:27      6.816
69C                 0:30      7.266
69C                 0:33      7.603
69C                 0:36      7.830
69C                 0:39      7.960
69C                 0:42      8.000
69C                 0:45      7.963
69C                 0:48      7.859
69C                 0:51      7.700
69C                 0:54      7.495
69C                 0:57      7.253
69C                 1:00      6.982
69C                 1:03      6.691
69C                 1:06      6.385
69C                 1:09      6.071
69C                 1:12      5.753
69C                 1:15      5.434
69C                 1:18      5.120
69C                 1:21      4.813
69C                 1:24      4.514
69C                 1:27      4.226
69C                 1:30      3.949
69C                 1:33      3.685
69C                 1:36      3.434
69C                 1:39      3.197
69C                 1:42      2.974
69C                 1:45      2.765
69C                 1:48      2.569
69C                 1:51      2.386
69C                 1:54      2.216
69C                 1:57      2.058
69C                 2:00      1.912
69C                 2:03      1.777
69C                 2:06      1.653
69C                 2:09      1.538
69C                 2:12      1.433
69C                 2:15      1.337
69C                 2:18      1.248
69C                 2:21      1.168
69C                 2:24      1.095
69C                 2:27      1.028
69C                 2:30      0.966
69C                 2:33      0.910
69C                 2:36      0.860
69C                 2:39      0.815
69C                 2:42      0.773
69C                 2:45      0.736
69C                 2:48      0.702
69C                 2:51      0.670
69C                 2:54      0.643
69C                 2:57      0.618
69C                 3:00      0.596
70C                 0:00      0.450
70C                 0:03      0.730
70C                 0:06      1.419
70C                 0:09      2.340
70C                 0:12      3.362
70C                 0:15      4.395
70C                 0:18      5.375
70C                 0:21      6.261
70C                 0:24      7.029
70C                 0:27      7.668
70C                 0:30      8.175
70C                 0:33      8.553
70C                 0:36      8.809
70C                 0:39      8.954
70C                 0:42      9.000
70C                 0:45      8.959
70C                 0:48      8.842
70C                 0:51      8.662
70C                 0:54      8.431
70C                 0:57      8.159
70C                 1:00      7.855
70C                 1:03      7.527
70C                 1:06      7.183
70C                 1:09      6.830
70C                 1:12      6.471
70C                 1:15      6.114
70C                 1:18      5.761
70C                 1:21      5.415
70C                 1:24      5.079
70C                 1:27      4.754
70C                 1:30      4.443
70C                 1:33      4.146
70C                 1:36      3.864
70C                 1:39      3.598
70C                 1:42      3.346
70C                 1:45      3.111
70C                 1:48      2.890
70C                 1:51      2.684
70C                 1:54      2.493
70C                 1:57      2.316
70C                 2:00      2.151
70C                 2:03      2.000
70C                 2:06      1.859
70C                 2:09      1.730
70C                 2:12      1.613
70C                 2:15      1.504
70C                 2:18      1.405
70C                 2:21      1.314
70C                 2:24      1.231
70C                 2:27      1.155
70C                 2:30      1.087
70C                 2:33      1.024
70C                 2:36      0.968
70C                 2:39      0.916
70C                 2:42      0.870
70C                 2:45      0.828
70C                 2:48      0.789
70C                 2:51      0.754
70C                 2:54      0.724
70C                 2:57      0.695
70C                 3:00      0.670
71C                 0:00      0.637
71C                 0:03      1.034
71C                 0:06      2.010
71C                 0:09      3.314
71C                 0:12      4.763
71C                 0:15      6.226
71C                 0:18      7.614
71C                 0:21      8.869
71C                 0:24      9.957
71C                 0:27      10.863
71C                 0:30      11.581
71C                 0:33      12.116
71C                 0:36      12.479
71C                 0:39      12.685
71C                 0:42      12.750
71C                 0:45      12.691
71C                 0:48      12.526
71C                 0:51      12.272
71C                 0:54      11.944
71C                 0:57      11.559
71C                 1:00      11.127
71C                 1:03      10.664
71C                 1:06      10.176
71C                 1:09      9.675
71C                 1:12      9.168
71C                 1:15      8.662
71C                 1:18      8.161
71C                 1:21      7.671
71C                 1:24      7.194
71C                 1:27      6.735
71C                 1:30      6.294
71C                 1:33      5.873
71C                 1:36      5.474
71C                 1:39      5.096
71C                 1:42      4.740
71C                 1:45      4.407
71C                 1:48      4.094
71C                 1:51      3.803
71C                 1:54      3.531
71C                 1:57      3.280
71C                 2:00      3.047
71C                 2:03      2.833
71C                 2:06      2.634
71C                 2:09      2.451
71C                 2:12      2.284
71C                 2:15      2.131
71C                 2:18      1.990
71C                 2:21      1.861
71C                 2:24      1.744
71C                 2:27      1.637
71C                 2:30      1.540
71C                 2:33      1.452
71C                 2:36      1.371
71C                 2:39      1.298
71C                 2:42      1.232
71C                 2:45      1.172
71C                 2:48      1.118
71C                 2:51      1.069
71C                 2:54      1.024
71C                 2:57      0.985
71C                 3:00      0.949
71I                 0:00      0.212
71I                 0:03      0.344
71I                 0:06      0.670
71I                 0:09      1.105
71I                 0:12      1.588
71I                 0:15      2.075
71I                 0:18      2.538
71I                 0:21      2.957
71I                 0:24      3.319
71I                 0:27      3.621
71I                 0:30      3.860
71I                 0:33      4.038
71I                 0:36      4.160
71I                 0:39      4.229
71I                 0:42      4.250
71I                 0:45      4.231
71I                 0:48      4.176
71I                 0:51      4.090
71I                 0:54      3.982
71I                 0:57      3.853
71I                 1:00      3.709
71I                 1:03      3.554
71I                 1:06      3.392
71I                 1:09      3.225
71I                 1:12      3.056
71I                 1:15      2.887
71I                 1:18      2.720
71I                 1:21      2.557
71I                 1:24      2.398
71I                 1:27      2.245
71I                 1:30      2.098
71I                 1:33      1.958
71I                 1:36      1.825
71I                 1:39      1.698
71I                 1:42      1.580
71I                 1:45      1.469
71I                 1:48      1.365
71I                 1:51      1.268
71I                 1:54      1.177
71I                 1:57      1.093
71I                 2:00      1.016
71I                 2:03      0.944
71I                 2:06      0.878
71I                 2:09      0.817
71I                 2:12      0.761
71I                 2:15      0.710
71I                 2:18      0.663
71I                 2:21      0.621
71I                 2:24      0.582
71I                 2:27      0.546
71I                 2:30      0.513
71I                 2:33      0.484
71I                 2:36      0.457
71I                 2:39      0.432
71I                 2:42      0.410
71I                 2:45      0.391
71I                 2:48      0.372
71I                 2:51      0.356
71I                 2:54      0.342
71I                 2:57      0.329
71I                 3:00      0.317
72C                 0:00      0.487
72C                 0:03      0.790
72C                 0:06      1.537
72C                 0:09      2.535
72C                 0:12      3.643
72C                 0:15      4.761
72C                 0:18      5.822
72C                 0:21      6.782
72C                 0:24      7.614
72C                 0:27      8.307
72C                 0:30      8.856
72C                 0:33      9.265
72C                 0:36      9.543
72C                 0:39      9.700
72C                 0:42      9.750
72C                 0:45      9.705
72C                 0:48      9.579
72C                 0:51      9.384
72C                 0:54      9.134
72C                 0:57      8.839
72C                 1:00      8.509
72C                 1:03      8.155
72C                 1:06      7.782
72C                 1:09      7.399
72C                 1:12      7.011
72C                 1:15      6.623
72C                 1:18      6.241
72C                 1:21      5.866
72C                 1:24      5.502
72C                 1:27      5.150
72C                 1:30      4.813
72C                 1:33      4.492
72C                 1:36      4.186
72C                 1:39      3.897
72C                 1:42      3.625
72C                 1:45      3.369
72C                 1:48      3.131
72C                 1:51      2.908
72C                 1:54      2.700
72C                 1:57      2.509
72C                 2:00      2.330
72C                 2:03      2.166
72C                 2:06      2.014
72C                 2:09      1.875
72C                 2:12      1.747
72C                 2:15      1.629
72C                 2:18      1.522
72C                 2:21      1.423
72C                 2:24      1.334
72C                 2:27      1.252
72C                 2:30      1.177
72C                 2:33      1.110
72C                 2:36      1.048
72C                 2:39      0.993
72C                 2:42      0.942
72C                 2:45      0.896
72C                 2:48      0.855
72C                 2:51      0.818
72C                 2:54      0.783
72C                 2:57      0.753
72C                 3:00      0.726
72I                 0:00      0.163
72I                 0:03      0.264
72I                 0:06      0.512
72I                 0:09      0.845
72I                 0:12      1.214
72I                 0:15      1.587
72I                 0:18      1.940
72I                 0:21      2.260
72I                 0:24      2.538
72I                 0:27      2.769
72I                 0:30      2.952
72I                 0:33      3.088
72I                 0:36      3.181
72I                 0:39      3.233
72I                 0:42      3.250
72I                 0:45      3.235
72I                 0:48      3.193
72I                 0:51      3.128
72I                 0:54      3.045
72I                 0:57      2.946
72I                 1:00      2.837
72I                 1:03      2.718
72I                 1:06      2.594
72I                 1:09      2.466
72I                 1:12      2.337
72I                 1:15      2.208
72I                 1:18      2.080
72I                 1:21      1.956
72I                 1:24      1.834
72I                 1:27      1.716
72I                 1:30      1.605
72I                 1:33      1.497
72I                 1:36      1.395
72I                 1:39      1.299
72I                 1:42      1.208
72I                 1:45      1.123
72I                 1:48      1.044
72I                 1:51      0.970
72I                 1:54      0.900
72I                 1:57      0.836
72I                 2:00      0.777
72I                 2:03      0.722
72I                 2:06      0.671
72I                 2:09      0.625
72I                 2:12      0.583
72I                 2:15      0.543
72I                 2:18      0.507
72I                 2:21      0.474
72I                 2:24      0.445
72I                 2:27      0.417
72I                 2:30      0.393
72I                 2:33      0.370
72I                 2:36      0.349
72I                 2:39      0.331
72I                 2:42      0.314
72I                 2:45      0.299
72I                 2:48      0.285
72I                 2:51      0.273
72I                 2:54      0.261
72I                 2:57      0.251
72I                 3:00      0.242
73C                 0:00      0.675
73C                 0:03      1.094
73C                 0:06      2.128
73C                 0:09      3.510
73C                 0:12      5.043
73C                 0:15      6.593
73C                 0:18      8.062
73C                 0:21      9.390
73C                 0:24      10.543
73C                 0:27      11.502
73C                 0:30      12.262
73C                 0:33      12.829
73C                 0:36      13.213
73C                 0:39      13.431
73C                 0:42      13.500
73C                 0:45      13.438
73C                 0:48      13.263
73C                 0:51      12.994
73C                 0:54      12.648
73C                 0:57      12.239
73C                 1:00      11.783
73C                 1:03      11.290
73C                 1:06      10.774
73C                 1:09      10.245
73C                 1:12      9.707
73C                 1:15      9.171
73C                 1:18      8.641
73C                 1:21      8.122
73C                 1:24      7.617
73C                 1:27      7.131
73C                 1:30      6.664
73C                 1:33      6.219
73C                 1:36      5.796
73C                 1:39      5.396
73C                 1:42      5.019
73C                 1:45      4.665
73C                 1:48      4.335
73C                 1:51      4.027
73C                 1:54      3.740
73C                 1:57      3.473
73C                 2:00      3.227
73C                 2:03      2.999
73C                 2:06      2.789
73C                 2:09      2.596
73C                 2:12      2.418
73C                 2:15      2.256
73C                 2:18      2.107
73C                 2:21      1.971
73C                 2:24      1.847
73C                 2:27      1.734
73C                 2:30      1.631
73C                 2:33      1.537
73C                 2:36      1.452
73C                 2:39      1.375
73C                 2:42      1.304
73C                 2:45      1.241
73C                 2:48      1.183
73C                 2:51      1.132
73C                 2:54      1.085
73C                 2:57      1.043
73C                 3:00      1.004
73I                 0:00      0.225
73I                 0:03      0.364
73I                 0:06      0.710
73I                 0:09      1.170
73I                 0:12      1.681
73I                 0:15      2.197
73I                 0:18      2.687
73I                 0:21      3.130
73I                 0:24      3.514
73I                 0:27      3.834
73I                 0:30      4.088
73I                 0:33      4.277
73I                 0:36      4.404
73I                 0:39      4.477
73I                 0:42      4.500
73I                 0:45      4.479
73I                 0:48      4.421
73I                 0:51      4.332
73I                 0:54      4.216
73I                 0:57      4.080
73I                 1:00      3.928
73I                 1:03      3.764
73I                 1:06      3.591
73I                 1:09      3.415
73I                 1:12      3.236
73I                 1:15      3.057
73I                 1:18      2.881
73I                 1:21      2.708
73I                 1:24      2.539
73I                 1:27      2.377
73I                 1:30      2.221
73I                 1:33      2.073
73I                 1:36      1.932
73I                 1:39      1.798
73I                 1:42      1.673
73I                 1:45      1.555
73I                 1:48      1.445
73I                 1:51      1.342
73I                 1:54      1.246
73I                 1:57      1.157
73I                 2:00      1.075
73I                 2:03      1.000
73I                 2:06      0.929
73I                 2:09      0.866
73I                 2:12      0.806
73I                 2:15      0.752
73I                 2:18      0.703
73I                 2:21      0.657
73I                 2:24      0.616
73I                 2:27      0.578
73I                 2:30      0.543
73I                 2:33      0.512
73I                 2:36      0.484
73I                 2:39      0.458
73I                 2:42      0.435
73I                 2:45      0.413
73I                 2:48      0.395
73I                 2:51      0.378
73I                 2:54      0.361
73I                 2:57      0.347
73I                 3:00      0.335
74C                 0:00      0.450
74C                 0:03      0.730
74C                 0:06      1.419
74C                 0:09      2.340
74C                 0:12      3.362
74C                 0:15      4.395
74C                 0:18      5.375
74C                 0:21      6.261
74C                 0:24      7.029
74C                 0:27      7.668
74C                 0:30      8.175
74C                 0:33      8.553
74C                 0:36      8.809
74C                 0:39      8.954
74C                 0:42      9.000
74C                 0:45      8.959
74C                 0:48      8.842
74C                 0:51      8.662
74C                 0:54      8.431
74C                 0:57      8.159
74C                 1:00      7.855
74C                 1:03      7.527
74C                 1:06      7.183
74C                 1:09      6.830
74C                 1:12      6.471
74C                 1:15      6.114
74C                 1:18      5.761
74C                 1:21      5.415
74C                 1:24      5.079
74C                 1:27      4.754
74C                 1:30      4.443
74C                 1:33      4.146
74C                 1:36      3.864
74C                 1:39      3.598
74C                 1:42      3.346
74C                 1:45      3.111
74C                 1:48      2.890
74C                 1:51      2.684
74C                 1:54      2.493
74C                 1:57      2.316
74C                 2:00      2.151
74C                 2:03      2.000
74C                 2:06      1.859
74C                 2:09      1.730
74C                 2:12      1.613
74C                 2:15      1.504
74C                 2:18      1.405
74C                 2:21      1.314
74C                 2:24      1.231
74C                 2:27      1.155
74C                 2:30      1.087
74C                 2:33      1.024
74C                 2:36      0.968
74C                 2:39      0.916
74C                 2:42      0.870
74C                 2:45      0.828
74C                 2:48      0.789
74C                 2:51      0.754
74C                 2:54      0.724
74C                 2:57      0.695
74C                 3:00      0.670
75C                 0:00      0.600
75C                 0:03      0.973
75C                 0:06      1.892
75C                 0:09      3.119
75C                 0:12      4.483
75C                 0:15      5.860
75C                 0:18      7.166
75C                 0:21      8.347
75C                 0:24      9.371
75C                 0:27      10.223
75C                 0:30      10.899
75C                 0:33      11.403
75C                 0:36      11.745
75C                 0:39      11.939
75C                 0:42      12.000
75C                 0:45      11.944
75C                 0:48      11.790
75C                 0:51      11.550
75C                 0:54      11.242
75C                 0:57      10.879
75C                 1:00      10.473
75C                 1:03      10.036
75C                 1:06      9.578
75C                 1:09      9.106
75C                 1:12      8.629
75C                 1:15      8.152
75C                 1:18      7.681
75C                 1:21      7.220
75C                 1:24      6.771
75C                 1:27      6.338
75C                 1:30      5.924
75C                 1:33      5.528
75C                 1:36      5.152
75C                 1:39      4.796
75C                 1:42      4.462
75C                 1:45      4.147
75C                 1:48      3.853
75C                 1:51      3.579
75C                 1:54      3.324
75C                 1:57      3.087
75C                 2:00      2.868
75C                 2:03      2.666
75C                 2:06      2.479
75C                 2:09      2.308
75C                 2:12      2.150
75C                 2:15      2.006
75C                 2:18      1.873
75C                 2:21      1.752
75C                 2:24      1.641
75C                 2:27      1.541
75C                 2:30      1.450
75C                 2:33      1.366
75C                 2:36      1.290
75C                 2:39      1.222
75C                 2:42      1.159
75C                 2:45      1.103
75C                 2:48      1.052
75C                 2:51      1.006
75C                 2:54      0.965
75C                 2:57      0.927
75C                 3:00      0.893
75I                 0:00      0.200
75I                 0:03      0.324
75I                 0:06      0.630
75I                 0:09      1.040
75I                 0:12      1.494
75I                 0:15      1.954
75I                 0:18      2.389
75I                 0:21      2.783
75I                 0:24      3.124
75I                 0:27      3.408
75I                 0:30      3.633
75I                 0:33      3.801
75I                 0:36      3.915
75I                 0:39      3.979
75I                 0:42      4.000
75I                 0:45      3.982
75I                 0:48      3.930
75I                 0:51      3.850
75I                 0:54      3.748
75I                 0:57      3.627
75I                 1:00      3.491
75I                 1:03      3.345
75I                 1:06      3.192
75I                 1:09      3.035
75I                 1:12      2.877
75I                 1:15      2.717
75I                 1:18      2.561
75I                 1:21      2.406
75I                 1:24      2.257
75I                 1:27      2.113
75I                 1:30      1.974
75I                 1:33      1.843
75I                 1:36      1.718
75I                 1:39      1.599
75I                 1:42      1.487
75I                 1:45      1.383
75I                 1:48      1.284
75I                 1:51      1.193
75I                 1:54      1.108
75I                 1:57      1.029
75I                 2:00      0.956
75I                 2:03      0.888
75I                 2:06      0.827
75I                 2:09      0.769
75I                 2:12      0.717
75I                 2:15      0.668
75I                 2:18      0.625
75I                 2:21      0.584
75I                 2:24      0.547
75I                 2:27      0.513
75I                 2:30      0.483
75I                 2:33      0.456
75I                 2:36      0.430
75I                 2:39      0.407
75I                 2:42      0.387
75I                 2:45      0.367
75I                 2:48      0.350
75I                 2:51      0.336
75I                 2:54      0.322
75I                 2:57      0.309
75I                 3:00      0.297
76C                 0:00      0.637
76C                 0:03      1.034
76C                 0:06      2.010
76C                 0:09      3.314
76C                 0:12      4.763
76C                 0:15      6.226
76C                 0:18      7.614
76C                 0:21      8.869
76C                 0:24      9.957
76C                 0:27      10.863
76C                 0:30      11.581
76C                 0:33      12.116
76C                 0:36      12.479
76C                 0:39      12.685
76C                 0:42      12.750
76C                 0:45      12.691
76C                 0:48      12.526
76C                 0:51      12.272
76C                 0:54      11.944
76C                 0:57      11.559
76C                 1:00      11.127
76C                 1:03      10.664
76C                 1:06      10.176
76C                 1:09      9.675
76C                 1:12      9.168
76C                 1:15      8.662
76C                 1:18      8.161
76C                 1:21      7.671
76C                 1:24      7.194
76C                 1:27      6.735
76C                 1:30      6.294
76C                 1:33      5.873
76C                 1:36      5.474
76C                 1:39      5.096
76C                 1:42      4.740
76C                 1:45      4.407
76C                 1:48      4.094
76C                 1:51      3.803
76C                 1:54      3.531
76C                 1:57      3.280
76C                 2:00      3.047
76C                 2:03      2.833
76C                 2:06      2.634
76C                 2:09      2.451
76C                 2:12      2.284
76C                 2:15      2.131
76C                 2:18      1.990
76C                 2:21      1.861
76C                 2:24      1.744
76C                 2:27      1.637
76C                 2:30      1.540
76C                 2:33      1.452
76C                 2:36      1.371
76C                 2:39      1.298
76C                 2:42      1.232
76C                 2:45      1.172
76C                 2:48      1.118
76C                 2:51      1.069
76C                 2:54      1.024
76C                 2:57      0.985
76C                 3:00      0.949
76I                 0:00      0.212
76I                 0:03      0.344
76I                 0:06      0.670
76I                 0:09      1.105
76I                 0:12      1.588
76I                 0:15      2.075
76I                 0:18      2.538
76I                 0:21      2.957
76I                 0:24      3.319
76I                 0:27      3.621
76I                 0:30      3.860
76I                 0:33      4.038
76I                 0:36      4.160
76I                 0:39      4.229
76I                 0:42      4.250
76I                 0:45      4.231
76I                 0:48      4.176
76I                 0:51      4.090
76I                 0:54      3.982
76I                 0:57      3.853
76I                 1:00      3.709
76I                 1:03      3.554
76I                 1:06      3.392
76I                 1:09      3.225
76I                 1:12      3.056
76I                 1:15      2.887
76I                 1:18      2.720
76I                 1:21      2.557
76I                 1:24      2.398
76I                 1:27      2.245
76I                 1:30      2.098
76I                 1:33      1.958
76I                 1:36      1.825
76I                 1:39      1.698
76I                 1:42      1.580
76I                 1:45      1.469
76I                 1:48      1.365
76I                 1:51      1.268
76I                 1:54      1.177
76I                 1:57      1.093
76I                 2:00      1.016
76I                 2:03      0.944
76I                 2:06      0.878
76I                 2:09      0.817
76I                 2:12      0.761
76I                 2:15      0.710
76I                 2:18      0.663
76I                 2:21      0.621
76I                 2:24      0.582
76I                 2:27      0.546
76I                 2:30      0.513
76I                 2:33      0.484
76I                 2:36      0.457
76I                 2:39      0.432
76I                 2:42      0.410
76I                 2:45      0.391
76I                 2:48      0.372
76I                 2:51      0.356
76I                 2:54      0.342
76I                 2:57      0.329
76I                 3:00      0.317
77C                 0:00      0.637
77C                 0:03      1.034
77C                 0:06      2.010
77C                 0:09      3.314
77C                 0:12      4.763
77C                 0:15      6.226
77C                 0:18      7.614
77C                 0:21      8.869
77C                 0:24      9.957
77C                 0:27      10.863
77C                 0:30      11.581
77C                 0:33      12.116
77C                 0:36      12.479
77C                 0:39      12.685
77C                 0:42      12.750
77C                 0:45      12.691
77C                 0:48      12.526
77C                 0:51      12.272
77C                 0:54      11.944
77C                 0:57      11.559
77C                 1:00      11.127
77C                 1:03      10.664
77C                 1:06      10.176
77C                 1:09      9.675
77C                 1:12      9.168
77C                 1:15      8.662
77C                 1:18      8.161
77C                 1:21      7.671
77C                 1:24      7.194
77C                 1:27      6.735
77C                 1:30      6.294
77C                 1:33      5.873
77C                 1:36      5.474
77C                 1:39      5.096
77C                 1:42      4.740
77C                 1:45      4.407
77C                 1:48      4.094
77C                 1:51      3.803
77C                 1:54      3.531
77C                 1:57      3.280
77C                 2:00      3.047
77C                 2:03      2.833
77C                 2:06      2.634
77C                 2:09      2.451
77C                 2:12      2.284
77C                 2:15      2.131
77C                 2:18      1.990
77C                 2:21      1.861
77C                 2:24      1.744
77C                 2:27      1.637
77C                 2:30      1.540
77C                 2:33      1.452
77C                 2:36      1.371
77C                 2:39      1.298
77C                 2:42      1.232
77C                 2:45      1.172
77C                 2:48      1.118
77C                 2:51      1.069
77C                 2:54      1.024
77C                 2:57      0.985
77C                 3:00      0.949
77I                 0:00      0.212
77I                 0:03      0.344
77I                 0:06      0.670
77I                 0:09      1.105
77I                 0:12      1.588
77I                 0:15      2.075
77I                 0:18      2.538
77I                 0:21      2.957
77I                 0:24      3.319
77I                 0:27      3.621
77I                 0:30      3.860
77I                 0:33      4.038
77I                 0:36      4.160
77I                 0:39      4.229
77I                 0:42      4.250
77I                 0:45      4.231
77I                 0:48      4.176
77I                 0:51      4.090
77I                 0:54      3.982
77I                 0:57      3.853
77I                 1:00      3.709
77I                 1:03      3.554
77I                 1:06      3.392
77I                 1:09      3.225
77I                 1:12      3.056
77I                 1:15      2.887
77I                 1:18      2.720
77I                 1:21      2.557
77I                 1:24      2.398
77I                 1:27      2.245
77I                 1:30      2.098
77I                 1:33      1.958
77I                 1:36      1.825
77I                 1:39      1.698
77I                 1:42      1.580
77I                 1:45      1.469
77I                 1:48      1.365
77I                 1:51      1.268
77I                 1:54      1.177
77I                 1:57      1.093
77I                 2:00      1.016
77I                 2:03      0.944
77I                 2:06      0.878
77I                 2:09      0.817
77I                 2:12      0.761
77I                 2:15      0.710
77I                 2:18      0.663
77I                 2:21      0.621
77I                 2:24      0.582
77I                 2:27      0.546
77I                 2:30      0.513
77I                 2:33      0.484
77I                 2:36      0.457
77I                 2:39      0.432
77I                 2:42      0.410
77I                 2:45      0.391
77I                 2:48      0.372
77I                 2:51      0.356
77I                 2:54      0.342
77I                 2:57      0.329
77I                 3:00      0.317
78C                 0:00      0.400
78C                 0:03      0.648
78C                 0:06      1.261
78C                 0:09      2.080
78C                 0:12      2.989
78C                 0:15      3.906
78C                 0:18      4.777
78C                 0:21      5.564
78C                 0:24      6.248
78C                 0:27      6.816
78C                 0:30      7.266
78C                 0:33      7.603
78C                 0:36      7.830
78C                 0:39      7.960
78C                 0:42      8.000
78C                 0:45      7.963
78C                 0:48      7.859
78C                 0:51      7.700
78C                 0:54      7.495
78C                 0:57      7.253
78C                 1:00      6.982
78C                 1:03      6.691
78C                 1:06      6.385
78C                 1:09      6.071
78C                 1:12      5.753
78C                 1:15      5.434
78C                 1:18      5.120
78C                 1:21      4.813
78C                 1:24      4.514
78C                 1:27      4.226
78C                 1:30      3.949
78C                 1:33      3.685
78C                 1:36      3.434
78C                 1:39      3.197
78C                 1:42      2.974
78C                 1:45      2.765
78C                 1:48      2.569
78C                 1:51      2.386
78C                 1:54      2.216
78C                 1:57      2.058
78C                 2:00      1.912
78C                 2:03      1.777
78C                 2:06      1.653
78C                 2:09      1.538
78C                 2:12      1.433
78C                 2:15      1.337
78C                 2:18      1.248
78C                 2:21      1.168
78C                 2:24      1.095
78C                 2:27      1.028
78C                 2:30      0.966
78C                 2:33      0.910
78C                 2:36      0.860
78C                 2:39      0.815
78C                 2:42      0.773
78C                 2:45      0.736
78C                 2:48      0.702
78C                 2:51      0.670
78C                 2:54      0.643
78C                 2:57      0.618
78C                 3:00      0.596
79C                 0:00      0.650
79C                 0:03      1.054
79C                 0:06      2.050
79C                 0:09      3.380
79C                 0:12      4.857
79C                 0:15      6.348
79C                 0:18      7.763
79C                 0:21      9.043
79C                 0:24      10.152
79C                 0:27      11.075
79C                 0:30      11.808
79C                 0:33      12.354
79C                 0:36      12.724
79C                 0:39      12.934
79C                 0:42      13.000
79C                 0:45      12.940
79C                 0:48      12.772
79C                 0:51      12.512
79C                 0:54      12.179
79C                 0:57      11.786
79C                 1:00      11.346
79C                 1:03      10.873
79C                 1:06      10.376
79C                 1:09      9.865
79C                 1:12      9.348
79C                 1:15      8.832
79C                 1:18      8.321
79C                 1:21      7.821
79C                 1:24      7.335
79C                 1:27      6.867
79C                 1:30      6.418
79C                 1:33      5.989
79C                 1:36      5.581
79C                 1:39      5.196
79C                 1:42      4.833
79C                 1:45      4.493
79C                 1:48      4.175
79C                 1:51      3.877
79C                 1:54      3.601
79C                 1:57      3.345
79C                 2:00      3.107
79C                 2:03      2.888
79C                 2:06      2.686
79C                 2:09      2.500
79C                 2:12      2.329
79C                 2:15      2.172
79C                 2:18      2.029
79C                 2:21      1.898
79C                 2:24      1.778
79C                 2:27      1.669
79C                 2:30      1.570
79C                 2:33      1.480
79C                 2:36      1.398
79C                 2:39      1.323
79C                 2:42      1.256
79C                 2:45      1.195
79C                 2:48      1.140
79C                 2:51      1.090
79C                 2:54      1.045
79C                 2:57      1.004
79C                 3:00      0.968
80C                 0:00      0.450
80C                 0:03      0.730
80C                 0:06      1.419
80C                 0:09      2.340
80C                 0:12      3.362
80C                 0:15      4.395
80C                 0:18      5.375
80C                 0:21      6.261
80C                 0:24      7.029
80C                 0:27      7.668
80C                 0:30      8.175
80C                 0:33      8.553
80C                 0:36      8.809
80C                 0:39      8.954
80C                 0:42      9.000
80C                 0:45      8.959
80C                 0:48      8.842
80C                 0:51      8.662
80C                 0:54      8.431
80C                 0:57      8.159
80C                 1:00      7.855
80C                 1:03      7.527
80C                 1:06      7.183
80C                 1:09      6.830
80C                 1:12      6.471
80C                 1:15      6.114
80C                 1:18      5.761
80C                 1:21      5.415
80C                 1:24      5.079
80C                 1:27      4.754
80C                 1:30      4.443
80C                 1:33      4.146
80C                 1:36      3.864
80C                 1:39      3.598
80C                 1:42      3.346
80C                 1:45      3.111
80C                 1:48      2.890
80C                 1:51      2.684
80C                 1:54      2.493
80C                 1:57      2.316
80C                 2:00      2.151
80C                 2:03      2.000
80C                 2:06      1.859
80C                 2:09      1.730
80C                 2:12      1.613
80C                 2:15      1.504
80C                 2:18      1.405
80C                 2:21      1.314
80C                 2:24      1.231
80C                 2:27      1.155
80C                 2:30      1.087
80C                 2:33      1.024
80C                 2:36      0.968
80C                 2:39      0.916
80C                 2:42      0.870
80C                 2:45      0.828
80C                 2:48      0.789
80C                 2:51      0.754
80C                 2:54      0.724
80C                 2:57      0.695
80C                 3:00      0.670
81C                 0:00      0.000
81C                 0:03      0.000
81C                 0:06      0.000
81C                 0:09      0.000
81C                 0:12      0.000
81C                 0:15      0.000
81C                 0:18      0.000
81C                 0:21      0.000
81C                 0:24      0.000
81C                 0:27      0.000
81C                 0:30      0.000
81C                 0:33      0.000
81C                 0:36      0.000
81C                 0:39      0.000
81C                 0:42      0.000
81C                 0:45      0.000
81C                 0:48      0.000
81C                 0:51      0.000
81C                 0:54      0.000
81C                 0:57      0.000
81C                 1:00      0.000
81C                 1:03      0.000
81C                 1:06      0.000
81C                 1:09      0.000
81C                 1:12      0.000
81C                 1:15      0.000
81C                 1:18      0.000
81C                 1:21      0.000
81C                 1:24      0.000
81C                 1:27      0.000
81C                 1:30      0.000
81C                 1:33      0.000
81C                 1:36      0.000
81C                 1:39      0.000
81C                 1:42      0.000
81C                 1:45      0.000
81C                 1:48      0.000
81C                 1:51      0.000
81C                 1:54      0.000
81C                 1:57      0.000
81C                 2:00      0.000
81C                 2:03      0.000
81C                 2:06      0.000
81C                 2:09      0.000
81C                 2:12      0.000
81C                 2:15      0.000
81C                 2:18      0.000
81C                 2:21      0.000
81C                 2:24      0.000
81C                 2:27      0.000
81C                 2:30      0.000
81C                 2:33      0.000
81C                 2:36      0.000
81C                 2:39      0.000
81C                 2:42      0.000
81C                 2:45      0.000
81C                 2:48      0.000
81C                 2:51      0.000
81C                 2:54      0.000
81C                 2:57      0.000
81C                 3:00      0.000
81I                 0:00      0.212
81I                 0:03      0.344
81I                 0:06      0.670
81I                 0:09      1.105
81I                 0:12      1.588
81I                 0:15      2.075
81I                 0:18      2.538
81I                 0:21      2.957
81I                 0:24      3.319
81I                 0:27      3.621
81I                 0:30      3.860
81I                 0:33      4.038
81I                 0:36      4.160
81I                 0:39      4.229
81I                 0:42      4.250
81I                 0:45      4.231
81I                 0:48      4.176
81I                 0:51      4.090
81I                 0:54      3.982
81I                 0:57      3.853
81I                 1:00      3.709
81I                 1:03      3.554
81I                 1:06      3.392
81I                 1:09      3.225
81I                 1:12      3.056
81I                 1:15      2.887
81I                 1:18      2.720
81I                 1:21      2.557
81I                 1:24      2.398
81I                 1:27      2.245
81I                 1:30      2.098
81I                 1:33      1.958
81I                 1:36      1.825
81I                 1:39      1.698
81I                 1:42      1.580
81I                 1:45      1.469
81I                 1:48      1.365
81I                 1:51      1.268
81I                 1:54      1.177
81I                 1:57      1.093
81I                 2:00      1.016
81I                 2:03      0.944
81I                 2:06      0.878
81I                 2:09      0.817
81I                 2:12      0.761
81I                 2:15      0.710
81I                 2:18      0.663
81I                 2:21      0.621
81I                 2:24      0.582
81I                 2:27      0.546
81I                 2:30      0.513
81I                 2:33      0.484
81I                 2:36      0.457
81I                 2:39      0.432
81I                 2:42      0.410
81I                 2:45      0.391
81I                 2:48      0.372
81I                 2:51      0.356
81I                 2:54      0.342
81I                 2:57      0.329
81I                 3:00      0.317
81Ib                0:00      0.637
81Ib                0:03      1.034
81Ib                0:06      2.010
81Ib                0:09      3.314
81Ib                0:12      4.763
81Ib                0:15      6.226
81Ib                0:18      7.614
81Ib                0:21      8.869
81Ib                0:24      9.957
81Ib                0:27      10.863
81Ib                0:30      11.581
81Ib                0:33      12.116
81Ib                0:36      12.479
81Ib                0:39      12.685
81Ib                0:42      12.750
81Ib                0:45      12.691
81Ib                0:48      12.526
81Ib                0:51      12.272
81Ib                0:54      11.944
81Ib                0:57      11.559
81Ib                1:00      11.127
81Ib                1:03      10.664
81Ib                1:06      10.176
81Ib                1:09      9.675
81Ib                1:12      9.168
81Ib                1:15      8.662
81Ib                1:18      8.161
81Ib                1:21      7.671
81Ib                1:24      7.194
81Ib                1:27      6.735
81Ib                1:30      6.294
81Ib                1:33      5.873
81Ib                1:36      5.474
81Ib                1:39      5.096
81Ib                1:42      4.740
81Ib                1:45      4.407
81Ib                1:48      4.094
81Ib                1:51      3.803
81Ib                1:54      3.531
81Ib                1:57      3.280
81Ib                2:00      3.047
81Ib                2:03      2.833
81Ib                2:06      2.634
81Ib                2:09      2.451
81Ib                2:12      2.284
81Ib                2:15      2.131
81Ib                2:18      1.990
81Ib                2:21      1.861
81Ib                2:24      1.744
81Ib                2:27      1.637
81Ib                2:30      1.540
81Ib                2:33      1.452
81Ib                2:36      1.371
81Ib                2:39      1.298
81Ib                2:42      1.232
81Ib                2:45      1.172
81Ib                2:48      1.118
81Ib                2:51      1.069
81Ib                2:54      1.024
81Ib                2:57      0.985
81Ib                3:00      0.949
82C                 0:00      0.400
82C                 0:03      0.648
82C                 0:06      1.261
82C                 0:09      2.080
82C                 0:12      2.989
82C                 0:15      3.906
82C                 0:18      4.777
82C                 0:21      5.564
82C                 0:24      6.248
82C                 0:27      6.816
82C                 0:30      7.266
82C                 0:33      7.603
82C                 0:36      7.830
82C                 0:39      7.960
82C                 0:42      8.000
82C                 0:45      7.963
82C                 0:48      7.859
82C                 0:51      7.700
82C                 0:54      7.495
82C                 0:57      7.253
82C                 1:00      6.982
82C                 1:03      6.691
82C                 1:06      6.385
82C                 1:09      6.071
82C                 1:12      5.753
82C                 1:15      5.434
82C                 1:18      5.120
82C                 1:21      4.813
82C                 1:24      4.514
82C                 1:27      4.226
82C                 1:30      3.949
82C                 1:33      3.685
82C                 1:36      3.434
82C                 1:39      3.197
82C                 1:42      2.974
82C                 1:45      2.765
82C                 1:48      2.569
82C                 1:51      2.386
82C                 1:54      2.216
82C                 1:57      2.058
82C                 2:00      1.912
82C                 2:03      1.777
82C                 2:06      1.653
82C                 2:09      1.538
82C                 2:12      1.433
82C                 2:15      1.337
82C                 2:18      1.248
82C                 2:21      1.168
82C                 2:24      1.095
82C                 2:27      1.028
82C                 2:30      0.966
82C                 2:33      0.910
82C                 2:36      0.860
82C                 2:39      0.815
82C                 2:42      0.773
82C                 2:45      0.736
82C                 2:48      0.702
82C                 2:51      0.670
82C                 2:54      0.643
82C                 2:57      0.618
82C                 3:00      0.596
82I                 0:00      0.200
82I                 0:03      0.324
82I                 0:06      0.630
82I                 0:09      1.040
82I                 0:12      1.494
82I                 0:15      1.954
82I                 0:18      2.389
82I                 0:21      2.783
82I                 0:24      3.124
82I                 0:27      3.408
82I                 0:30      3.633
82I                 0:33      3.801
82I                 0:36      3.915
82I                 0:39      3.979
82I                 0:42      4.000
82I                 0:45      3.982
82I                 0:48      3.930
82I                 0:51      3.850
82I                 0:54      3.748
82I                 0:57      3.627
82I                 1:00      3.491
82I                 1:03      3.345
82I                 1:06      3.192
82I                 1:09      3.035
82I                 1:12      2.877
82I                 1:15      2.717
82I                 1:18      2.561
82I                 1:21      2.406
82I                 1:24      2.257
82I                 1:27      2.113
82I                 1:30      1.974
82I                 1:33      1.843
82I                 1:36      1.718
82I                 1:39      1.599
82I                 1:42      1.487
82I                 1:45      1.383
82I                 1:48      1.284
82I                 1:51      1.193
82I                 1:54      1.108
82I                 1:57      1.029
82I                 2:00      0.956
82I                 2:03      0.888
82I                 2:06      0.827
82I                 2:09      0.769
82I                 2:12      0.717
82I                 2:15      0.668
82I                 2:18      0.625
82I                 2:21      0.584
82I                 2:24      0.547
82I                 2:27      0.513
82I                 2:30      0.483
82I                 2:33      0.456
82I                 2:36      0.430
82I                 2:39      0.407
82I                 2:42      0.387
82I                 2:45      0.367
82I                 2:48      0.350
82I                 2:51      0.336
82I                 2:54      0.322
82I                 2:57      0.309
82I                 3:00      0.297
82Ib                0:00      0.200
82Ib                0:03      0.324
82Ib                0:06      0.630
82Ib                0:09      1.040
82Ib                0:12      1.494
82Ib                0:15      1.954
82Ib                0:18      2.389
82Ib                0:21      2.783
82Ib                0:24      3.124
82Ib                0:27      3.408
82Ib                0:30      3.633
82Ib                0:33      3.801
82Ib                0:36      3.915
82Ib                0:39      3.979
82Ib                0:42      4.000
82Ib                0:45      3.982
82Ib                0:48      3.930
82Ib                0:51      3.850
82Ib                0:54      3.748
82Ib                0:57      3.627
82Ib                1:00      3.491
82Ib                1:03      3.345
82Ib                1:06      3.192
82Ib                1:09      3.035
82Ib                1:12      2.877
82Ib                1:15      2.717
82Ib                1:18      2.561
82Ib                1:21      2.406
82Ib                1:24      2.257
82Ib                1:27      2.113
82Ib                1:30      1.974
82Ib                1:33      1.843
82Ib                1:36      1.718
82Ib                1:39      1.599
82Ib                1:42      1.487
82Ib                1:45      1.383
82Ib                1:48      1.284
82Ib                1:51      1.193
82Ib                1:54      1.108
82Ib                1:57      1.029
82Ib                2:00      0.956
82Ib                2:03      0.888
82Ib                2:06      0.827
82Ib                2:09      0.769
82Ib                2:12      0.717
82Ib                2:15      0.668
82Ib                2:18      0.625
82Ib                2:21      0.584
82Ib                2:24      0.547
82Ib                2:27      0.513
82Ib                2:30      0.483
82Ib                2:33      0.456
82Ib                2:36      0.430
82Ib                2:39      0.407
82Ib                2:42      0.387
82Ib                2:45      0.367
82Ib                2:48      0.350
82Ib                2:51      0.336
82Ib                2:54      0.322
82Ib                2:57      0.309
82Ib                3:00      0.297
83C                 0:00      0.750
83C                 0:03      1.216
83C                 0:06      2.365
83C                 0:09      3.900
83C                 0:12      5.604
83C                 0:15      7.324
83C                 0:18      8.957
83C                 0:21      10.434
83C                 0:24      11.714
83C                 0:27      12.780
83C                 0:30      13.624
83C                 0:33      14.254
83C                 0:36      14.681
83C                 0:39      14.924
83C                 0:42      15.000
83C                 0:45      14.931
83C                 0:48      14.736
83C                 0:51      14.438
83C                 0:54      14.053
83C                 0:57      13.598
83C                 1:00      13.091
83C                 1:03      12.545
83C                 1:06      11.972
83C                 1:09      11.383
83C                 1:12      10.786
83C                 1:15      10.190
83C                 1:18      9.601
83C                 1:21      9.024
83C                 1:24      8.464
83C                 1:27      7.923
83C                 1:30      7.404
83C                 1:33      6.910
83C                 1:36      6.440
83C                 1:39      5.995
83C                 1:42      5.577
83C                 1:45      5.184
83C                 1:48      4.816
83C                 1:51      4.474
83C                 1:54      4.155
83C                 1:57      3.859
83C                 2:00      3.585
83C                 2:03      3.332
83C                 2:06      3.099
83C                 2:09      2.885
83C                 2:12      2.688
83C                 2:15      2.506
83C                 2:18      2.341
83C                 2:21      2.190
83C                 2:24      2.052
83C                 2:27      1.926
83C                 2:30      1.812
83C                 2:33      1.708
83C                 2:36      1.613
83C                 2:39      1.527
83C                 2:42      1.450
83C                 2:45      1.379
83C                 2:48      1.315
83C                 2:51      1.258
83C                 2:54      1.206
83C                 2:57      1.159
83C                 3:00      1.117
83I                 0:00      0.250
83I                 0:03      0.405
83I                 0:06      0.788
83I                 0:09      1.300
83I                 0:12      1.868
83I                 0:15      2.442
83I                 0:18      2.986
83I                 0:21      3.478
83I                 0:24      3.905
83I                 0:27      4.260
83I                 0:30      4.542
83I                 0:33      4.752
83I                 0:36      4.894
83I                 0:39      4.974
83I                 0:42      5.000
83I                 0:45      4.977
83I                 0:48      4.912
83I                 0:51      4.812
83I                 0:54      4.684
83I                 0:57      4.533
83I                 1:00      4.364
83I                 1:03      4.181
83I                 1:06      3.990
83I                 1:09      3.794
83I                 1:12      3.595
83I                 1:15      3.397
83I                 1:18      3.200
83I                 1:21      3.008
83I                 1:24      2.821
83I                 1:27      2.641
83I                 1:30      2.468
83I                 1:33      2.304
83I                 1:36      2.147
83I                 1:39      1.998
83I                 1:42      1.859
83I                 1:45      1.728
83I                 1:48      1.605
83I                 1:51      1.492
83I                 1:54      1.385
83I                 1:57      1.286
83I                 2:00      1.195
83I                 2:03      1.111
83I                 2:06      1.033
83I                 2:09      0.962
83I                 2:12      0.896
83I                 2:15      0.836
83I                 2:18      0.780
83I                 2:21      0.730
83I                 2:24      0.684
83I                 2:27      0.642
83I                 2:30      0.604
83I                 2:33      0.569
83I                 2:36      0.537
83I                 2:39      0.509
83I                 2:42      0.483
83I                 2:45      0.460
83I                 2:48      0.439
83I                 2:51      0.419
83I                 2:54      0.402
83I                 2:57      0.386
83I                 3:00      0.372
84C                 0:00      0.487
84C                 0:03      0.790
84C                 0:06      1.537
84C                 0:09      2.535
84C                 0:12      3.643
84C                 0:15      4.761
84C                 0:18      5.822
84C                 0:21      6.782
84C                 0:24      7.614
84C                 0:27      8.307
84C                 0:30      8.856
84C                 0:33      9.265
84C                 0:36      9.543
84C                 0:39      9.700
84C                 0:42      9.750
84C                 0:45      9.705
84C                 0:48      9.579
84C                 0:51      9.384
84C                 0:54      9.134
84C                 0:57      8.839
84C                 1:00      8.509
84C                 1:03      8.155
84C                 1:06      7.782
84C                 1:09      7.399
84C                 1:12      7.011
84C                 1:15      6.623
84C                 1:18      6.241
84C                 1:21      5.866
84C                 1:24      5.502
84C                 1:27      5.150
84C                 1:30      4.813
84C                 1:33      4.492
84C                 1:36      4.186
84C                 1:39      3.897
84C                 1:42      3.625
84C                 1:45      3.369
84C                 1:48      3.131
84C                 1:51      2.908
84C                 1:54      2.700
84C                 1:57      2.509
84C                 2:00      2.330
84C                 2:03      2.166
84C                 2:06      2.014
84C                 2:09      1.875
84C                 2:12      1.747
84C                 2:15      1.629
84C                 2:18      1.522
84C                 2:21      1.423
84C                 2:24      1.334
84C                 2:27      1.252
84C                 2:30      1.177
84C                 2:33      1.110
84C                 2:36      1.048
84C                 2:39      0.993
84C                 2:42      0.942
84C                 2:45      0.896
84C                 2:48      0.855
84C                 2:51      0.818
84C                 2:54      0.783
84C                 2:57      0.753
84C                 3:00      0.726
84I                 0:00      0.163
84I                 0:03      0.264
84I                 0:06      0.512
84I                 0:09      0.845
84I                 0:12      1.214
84I                 0:15      1.587
84I                 0:18      1.940
84I                 0:21      2.260
84I                 0:24      2.538
84I                 0:27      2.769
84I                 0:30      2.952
84I                 0:33      3.088
84I                 0:36      3.181
84I                 0:39      3.233
84I                 0:42      3.250
84I                 0:45      3.235
84I                 0:48      3.193
84I                 0:51      3.128
84I                 0:54      3.045
84I                 0:57      2.946
84I                 1:00      2.837
84I                 1:03      2.718
84I                 1:06      2.594
84I                 1:09      2.466
84I                 1:12      2.337
84I                 1:15      2.208
84I                 1:18      2.080
84I                 1:21      1.956
84I                 1:24      1.834
84I                 1:27      1.716
84I                 1:30      1.605
84I                 1:33      1.497
84I                 1:36      1.395
84I                 1:39      1.299
84I                 1:42      1.208
84I                 1:45      1.123
84I                 1:48      1.044
84I                 1:51      0.970
84I                 1:54      0.900
84I                 1:57      0.836
84I                 2:00      0.777
84I                 2:03      0.722
84I                 2:06      0.671
84I                 2:09      0.625
84I                 2:12      0.583
84I                 2:15      0.543
84I                 2:18      0.507
84I                 2:21      0.474
84I                 2:24      0.445
84I                 2:27      0.417
84I                 2:30      0.393
84I                 2:33      0.370
84I                 2:36      0.349
84I                 2:39      0.331
84I                 2:42      0.314
84I                 2:45      0.299
84I                 2:48      0.285
84I                 2:51      0.273
84I                 2:54      0.261
84I                 2:57      0.251
84I                 3:00      0.242
85C                 0:00      0.450
85C                 0:03      0.730
85C                 0:06      1.419
85C                 0:09      2.340
85C                 0:12      3.362
85C                 0:15      4.395
85C                 0:18      5.375
85C                 0:21      6.261
85C                 0:24      7.029
85C                 0:27      7.668
85C                 0:30      8.175
85C                 0:33      8.553
85C                 0:36      8.809
85C                 0:39      8.954
85C                 0:42      9.000
85C                 0:45      8.959
85C                 0:48      8.842
85C                 0:51      8.662
85C                 0:54      8.431
85C                 0:57      8.159
85C                 1:00      7.855
85C                 1:03      7.527
85C                 1:06      7.183
85C                 1:09      6.830
85C                 1:12      6.471
85C                 1:15      6.114
85C                 1:18      5.761
85C                 1:21      5.415
85C                 1:24      5.079
85C                 1:27      4.754
85C                 1:30      4.443
85C                 1:33      4.146
85C                 1:36      3.864
85C                 1:39      3.598
85C                 1:42      3.346
85C                 1:45      3.111
85C                 1:48      2.890
85C                 1:51      2.684
85C                 1:54      2.493
85C                 1:57      2.316
85C                 2:00      2.151
85C                 2:03      2.000
85C                 2:06      1.859
85C                 2:09      1.730
85C                 2:12      1.613
85C                 2:15      1.504
85C                 2:18      1.405
85C                 2:21      1.314
85C                 2:24      1.231
85C                 2:27      1.155
85C                 2:30      1.087
85C                 2:33      1.024
85C                 2:36      0.968
85C                 2:39      0.916
85C                 2:42      0.870
85C                 2:45      0.828
85C                 2:48      0.789
85C                 2:51      0.754
85C                 2:54      0.724
85C                 2:57      0.695
85C                 3:00      0.670
86C                 0:00      0.050
86C                 0:03      0.081
86C                 0:06      0.158
86C                 0:09      0.260
86C                 0:12      0.373
86C                 0:15      0.488
86C                 0:18      0.597
86C                 0:21      0.696
86C                 0:24      0.781
86C                 0:27      0.852
86C                 0:30      0.908
86C                 0:33      0.951
86C                 0:36      0.979
86C                 0:39      0.995
86C                 0:42      1.000
86C                 0:45      0.996
86C                 0:48      0.983
86C                 0:51      0.963
86C                 0:54      0.937
86C                 0:57      0.906
86C                 1:00      0.873
86C                 1:03      0.837
86C                 1:06      0.798
86C                 1:09      0.759
86C                 1:12      0.719
86C                 1:15      0.679
86C                 1:18      0.640
86C                 1:21      0.602
86C                 1:24      0.565
86C                 1:27      0.528
86C                 1:30      0.493
86C                 1:33      0.461
86C                 1:36      0.429
86C                 1:39      0.400
86C                 1:42      0.372
86C                 1:45      0.345
86C                 1:48      0.321
86C                 1:51      0.298
86C                 1:54      0.277
86C                 1:57      0.258
86C                 2:00      0.239
86C                 2:03      0.222
86C                 2:06      0.206
86C                 2:09      0.193
86C                 2:12      0.179
86C                 2:15      0.167
86C                 2:18      0.156
86C                 2:21      0.146
86C                 2:24      0.137
86C                 2:27      0.129
86C                 2:30      0.121
86C                 2:33      0.114
86C                 2:36      0.107
86C                 2:39      0.102
86C                 2:42      0.097
86C                 2:45      0.092
86C                 2:48      0.087
86C                 2:51      0.084
86C                 2:54      0.081
86C                 2:57      0.077
86C                 3:00      0.074
86I                 0:00      0.800
86I                 0:03      1.296
86I                 0:06      2.522
86I                 0:09      4.160
86I                 0:12      5.978
86I                 0:15      7.813
86I                 0:18      9.555
86I                 0:21      11.130
86I                 0:24      12.495
86I                 0:27      13.632
86I                 0:30      14.533
86I                 0:33      15.204
86I                 0:36      15.661
86I                 0:39      15.919
86I                 0:42      16.000
86I                 0:45      15.926
86I                 0:48      15.719
86I                 0:51      15.400
86I                 0:54      14.989
86I                 0:57      14.505
86I                 1:00      13.964
86I                 1:03      13.382
86I                 1:06      12.770
86I                 1:09      12.142
86I                 1:12      11.505
86I                 1:15      10.870
86I                 1:18      10.241
86I                 1:21      9.626
86I                 1:24      9.028
86I                 1:27      8.451
86I                 1:30      7.899
86I                 1:33      7.370
86I                 1:36      6.869
86I                 1:39      6.395
86I                 1:42      5.949
86I                 1:45      5.530
86I                 1:48      5.138
86I                 1:51      4.772
86I                 1:54      4.432
86I                 1:57      4.117
86I                 2:00      3.824
86I                 2:03      3.554
86I                 2:06      3.305
86I                 2:09      3.076
86I                 2:12      2.866
86I                 2:15      2.674
86I                 2:18      2.498
86I                 2:21      2.336
86I                 2:24      2.189
86I                 2:27      2.054
86I                 2:30      1.933
86I                 2:33      1.821
86I                 2:36      1.720
86I                 2:39      1.629
86I                 2:42      1.546
86I                 2:45      1.471
86I                 2:48      1.403
86I                 2:51      1.341
86I                 2:54      1.286
86I                 2:57      1.236
86I                 3:00      1.191
87C                 0:00      -0.000
87C                 0:03      -0.000
87C                 0:06      -0.000
87C                 0:09      -0.000
87C                 0:12      -0.000
87C                 0:15      -0.000
87C                 0:18      -0.000
87C                 0:21      -0.000
87C                 0:24      -0.000
87C                 0:27      -0.000
87C                 0:30      -0.000
87C                 0:33      -0.000
87C                 0:36      -0.000
87C                 0:39      -0.000
87C                 0:42      -0.000
87C                 0:45      -0.000
87C                 0:48      -0.000
87C                 0:51      -0.000
87C                 0:54      -0.000
87C                 0:57      -0.000
87C                 1:00      -0.000
87C                 1:03      -0.000
87C                 1:06      -0.000
87C                 1:09      -0.000
87C                 1:12      -0.000
87C                 1:15      -0.000
87C                 1:18      -0.000
87C                 1:21      -0.000
87C                 1:24      -0.000
87C                 1:27      -0.000
87C                 1:30      -0.000
87C                 1:33      -0.000
87C                 1:36      -0.000
87C                 1:39      -0.000
87C                 1:42      -0.000
87C                 1:45      -0.000
87C                 1:48      -0.000
87C                 1:51      -0.000
87C                 1:54      -0.000
87C                 1:57      -0.000
87C                 2:00      -0.000
87C                 2:03      -0.000
87C                 2:06      -0.000
87C                 2:09      -0.000
87C                 2:12      -0.000
87C                 2:15      -0.000
87C                 2:18      -0.000
87C                 2:21      -0.000
87C                 2:24      -0.000
87C                 2:27      -0.000
87C                 2:30      -0.000
87C                 2:33      -0.000
87C                 2:36      -0.000
87C                 2:39      -0.000
87C                 2:42      -0.000
87C                 2:45      -0.000
87C                 2:48      -0.000
87C                 2:51      -0.000
87C                 2:54      -0.000
87C                 2:57      -0.000
87C                 3:00      -0.000
87I                 0:00      1.300
87I                 0:03      2.107
87I                 0:06      4.099
87I                 0:09      6.760
87I                 0:12      9.713
87I                 0:15      12.696
87I                 0:18      15.526
87I                 0:21      18.085
87I                 0:24      20.305
87I                 0:27      22.151
87I                 0:30      23.616
87I                 0:33      24.707
87I                 0:36      25.448
87I                 0:39      25.868
87I                 0:42      26.000
87I                 0:45      25.880
87I                 0:48      25.544
87I                 0:51      25.026
87I                 0:54      24.358
87I                 0:57      23.571
87I                 1:00      22.692
87I                 1:03      21.745
87I                 1:06      20.752
87I                 1:09      19.730
87I                 1:12      18.695
87I                 1:15      17.663
87I                 1:18      16.642
87I                 1:21      15.643
87I                 1:24      14.671
87I                 1:27      13.734
87I                 1:30      12.835
87I                 1:33      11.977
87I                 1:36      11.162
87I                 1:39      10.392
87I                 1:42      9.667
87I                 1:45      8.986
87I                 1:48      8.349
87I                 1:51      7.755
87I                 1:54      7.202
87I                 1:57      6.689
87I                 2:00      6.215
87I                 2:03      5.776
87I                 2:06      5.372
87I                 2:09      5.000
87I                 2:12      4.658
87I                 2:15      4.345
87I                 2:18      4.058
87I                 2:21      3.796
87I                 2:24      3.557
87I                 2:27      3.338
87I                 2:30      3.140
87I                 2:33      2.959
87I                 2:36      2.796
87I                 2:39      2.647
87I                 2:42      2.512
87I                 2:45      2.390
87I                 2:48      2.280
87I                 2:51      2.180
87I                 2:54      2.090
87I                 2:57      2.009
87I                 3:00      1.935
88C                 0:00      0.850
88C                 0:03      1.378
88C                 0:06      2.680
88C                 0:09      4.420
88C                 0:12      6.351
88C                 0:15      8.302
88C                 0:18      10.152
88C                 0:21      11.825
88C                 0:24      13.277
88C                 0:27      14.483
88C                 0:30      15.441
88C                 0:33      16.155
88C                 0:36      16.640
88C                 0:39      16.913
88C                 0:42      17.000
88C                 0:45      16.922
88C                 0:48      16.701
88C                 0:51      16.363
88C                 0:54      15.926
88C                 0:57      15.412
88C                 1:00      14.837
88C                 1:03      14.218
88C                 1:06      13.568
88C                 1:09      12.900
88C                 1:12      12.224
88C                 1:15      11.549
88C                 1:18      10.882
88C                 1:21      10.227
88C                 1:24      9.592
88C                 1:27      8.980
88C                 1:30      8.392
88C                 1:33      7.831
88C                 1:36      7.298
88C                 1:39      6.795
88C                 1:42      6.321
88C                 1:45      5.875
88C                 1:48      5.459
88C                 1:51      5.071
88C                 1:54      4.709
88C                 1:57      4.373
88C                 2:00      4.063
88C                 2:03      3.776
88C                 2:06      3.512
88C                 2:09      3.269
88C                 2:12      3.046
88C                 2:15      2.841
88C                 2:18      2.654
88C                 2:21      2.482
88C                 2:24      2.325
88C                 2:27      2.183
88C                 2:30      2.053
88C                 2:33      1.935
88C                 2:36      1.828
88C                 2:39      1.730
88C                 2:42      1.643
88C                 2:45      1.562
88C                 2:48      1.490
88C                 2:51      1.425
88C                 2:54      1.367
88C                 2:57      1.313
88C                 3:00      1.265
89C                 0:00      0.450
89C                 0:03      0.730
89C                 0:06      1.419
89C                 0:09      2.340
89C                 0:12      3.362
89C                 0:15      4.395
89C                 0:18      5.375
89C                 0:21      6.261
89C                 0:24      7.029
89C                 0:27      7.668
89C                 0:30      8.175
89C                 0:33      8.553
89C                 0:36      8.809
89C                 0:39      8.954
89C                 0:42      9.000
89C                 0:45      8.959
89C                 0:48      8.842
89C                 0:51      8.662
89C                 0:54      8.431
89C                 0:57      8.159
89C                 1:00      7.855
89C                 1:03      7.527
89C                 1:06      7.183
89C                 1:09      6.830
89C                 1:12      6.471
89C                 1:15      6.114
89C                 1:18      5.761
89C                 1:21      5.415
89C                 1:24      5.079
89C                 1:27      4.754
89C                 1:30      4.443
89C                 1:33      4.146
89C                 1:36      3.864
89C                 1:39      3.598
89C                 1:42      3.346
89C                 1:45      3.111
89C                 1:48      2.890
89C                 1:51      2.684
89C                 1:54      2.493
89C                 1:57      2.316
89C                 2:00      2.151
89C                 2:03      2.000
89C                 2:06      1.859
89C                 2:09      1.730
89C                 2:12      1.613
89C                 2:15      1.504
89C                 2:18      1.405
89C                 2:21      1.314
89C                 2:24      1.231
89C                 2:27      1.155
89C                 2:30      1.087
89C                 2:33      1.024
89C                 2:36      0.968
89C                 2:39      0.916
89C                 2:42      0.870
89C                 2:45      0.828
89C                 2:48      0.789
89C                 2:51      0.754
89C                 2:54      0.724
89C                 2:57      0.695
89C                 3:00      0.670
90C                 0:00      0.637
90C                 0:03      1.034
90C                 0:06      2.010
90C                 0:09      3.314
90C                 0:12      4.763
90C                 0:15      6.226
90C                 0:18      7.614
90C                 0:21      8.869
90C                 0:24      9.957
90C                 0:27      10.863
90C                 0:30      11.581
90C                 0:33      12.116
90C                 0:36      12.479
90C                 0:39      12.685
90C                 0:42      12.750
90C                 0:45      12.691
90C                 0:48      12.526
90C                 0:51      12.272
90C                 0:54      11.944
90C                 0:57      11.559
90C                 1:00      11.127
90C                 1:03      10.664
90C                 1:06      10.176
90C                 1:09      9.675
90C                 1:12      9.168
90C                 1:15      8.662
90C                 1:18      8.161
90C                 1:21      7.671
90C                 1:24      7.194
90C                 1:27      6.735
90C                 1:30      6.294
90C                 1:33      5.873
90C                 1:36      5.474
90C                 1:39      5.096
90C                 1:42      4.740
90C                 1:45      4.407
90C                 1:48      4.094
90C                 1:51      3.803
90C                 1:54      3.531
90C                 1:57      3.280
90C                 2:00      3.047
90C                 2:03      2.833
90C                 2:06      2.634
90C                 2:09      2.451
90C                 2:12      2.284
90C                 2:15      2.131
90C                 2:18      1.990
90C                 2:21      1.861
90C                 2:24      1.744
90C                 2:27      1.637
90C                 2:30      1.540
90C                 2:33      1.452
90C                 2:36      1.371
90C                 2:39      1.298
90C                 2:42      1.232
90C                 2:45      1.172
90C                 2:48      1.118
90C                 2:51      1.069
90C                 2:54      1.024
90C                 2:57      0.985
90C                 3:00      0.949
90I                 0:00      0.212
90I                 0:03      0.344
90I                 0:06      0.670
90I                 0:09      1.105
90I                 0:12      1.588
90I                 0:15      2.075
90I                 0:18      2.538
90I                 0:21      2.957
90I                 0:24      3.319
90I                 0:27      3.621
90I                 0:30      3.860
90I                 0:33      4.038
90I                 0:36      4.160
90I                 0:39      4.229
90I                 0:42      4.250
90I                 0:45      4.231
90I                 0:48      4.176
90I                 0:51      4.090
90I                 0:54      3.982
90I                 0:57      3.853
90I                 1:00      3.709
90I                 1:03      3.554
90I                 1:06      3.392
90I                 1:09      3.225
90I                 1:12      3.056
90I                 1:15      2.887
90I                 1:18      2.720
90I                 1:21      2.557
90I                 1:24      2.398
90I                 1:27      2.245
90I                 1:30      2.098
90I                 1:33      1.958
90I                 1:36      1.825
90I                 1:39      1.698
90I                 1:42      1.580
90I                 1:45      1.469
90I                 1:48      1.365
90I                 1:51      1.268
90I                 1:54      1.177
90I                 1:57      1.093
90I                 2:00      1.016
90I                 2:03      0.944
90I                 2:06      0.878
90I                 2:09      0.817
90I                 2:12      0.761
90I                 2:15      0.710
90I                 2:18      0.663
90I                 2:21      0.621
90I                 2:24      0.582
90I                 2:27      0.546
90I                 2:30      0.513
90I                 2:33      0.484
90I                 2:36      0.457
90I                 2:39      0.432
90I                 2:42      0.410
90I                 2:45      0.391
90I                 2:48      0.372
90I                 2:51      0.356
90I                 2:54      0.342
90I                 2:57      0.329
90I                 3:00      0.317
91C                 0:00      0.000
91C                 0:03      0.000
91C                 0:06      0.000
91C                 0:09      0.000
91C                 0:12      0.000
91C                 0:15      0.000
91C                 0:18      0.000
91C                 0:21      0.000
91C                 0:24      0.000
91C                 0:27      0.000
91C                 0:30      0.000
91C                 0:33      0.000
91C                 0:36      0.000
91C                 0:39      0.000
91C                 0:42      0.000
91C                 0:45      0.000
91C                 0:48      0.000
91C                 0:51      0.000
91C                 0:54      0.000
91C                 0:57      0.000
91C                 1:00      0.000
91C                 1:03      0.000
91C                 1:06      0.000
91C                 1:09      0.000
91C                 1:12      0.000
91C                 1:15      0.000
91C                 1:18      0.000
91C                 1:21      0.000
91C                 1:24      0.000
91C                 1:27      0.000
91C                 1:30      0.000
91C                 1:33      0.000
91C                 1:36      0.000
91C                 1:39      0.000
91C                 1:42      0.000
91C                 1:45      0.000
91C                 1:48      0.000
91C                 1:51      0.000
91C                 1:54      0.000
91C                 1:57      0.000
91C                 2:00      0.000
91C                 2:03      0.000
91C                 2:06      0.000
91C                 2:09      0.000
91C                 2:12      0.000
91C                 2:15      0.000
91C                 2:18      0.000
91C                 2:21      0.000
91C                 2:24      0.000
91C                 2:27      0.000
91C                 2:30      0.000
91C                 2:33      0.000
91C                 2:36      0.000
91C                 2:39      0.000
91C                 2:42      0.000
91C                 2:45      0.000
91C                 2:48      0.000
91C                 2:51      0.000
91C                 2:54      0.000
91C                 2:57      0.000
91C                 3:00      0.000
91I                 0:00      0.312
91I                 0:03      0.506
91I                 0:06      0.986
91I                 0:09      1.625
91I                 0:12      2.335
91I                 0:15      3.052
91I                 0:18      3.732
91I                 0:21      4.348
91I                 0:24      4.881
91I                 0:27      5.325
91I                 0:30      5.677
91I                 0:33      5.939
91I                 0:36      6.117
91I                 0:39      6.218
91I                 0:42      6.250
91I                 0:45      6.221
91I                 0:48      6.141
91I                 0:51      6.016
91I                 0:54      5.855
91I                 0:57      5.666
91I                 1:00      5.455
91I                 1:03      5.227
91I                 1:06      4.989
91I                 1:09      4.742
91I                 1:12      4.494
91I                 1:15      4.246
91I                 1:18      4.000
91I                 1:21      3.760
91I                 1:24      3.526
91I                 1:27      3.301
91I                 1:30      3.086
91I                 1:33      2.879
91I                 1:36      2.683
91I                 1:39      2.498
91I                 1:42      2.324
91I                 1:45      2.160
91I                 1:48      2.007
91I                 1:51      1.864
91I                 1:54      1.731
91I                 1:57      1.608
91I                 2:00      1.494
91I                 2:03      1.389
91I                 2:06      1.291
91I                 2:09      1.202
91I                 2:12      1.119
91I                 2:15      1.044
91I                 2:18      0.976
91I                 2:21      0.912
91I                 2:24      0.855
91I                 2:27      0.802
91I                 2:30      0.755
91I                 2:33      0.712
91I                 2:36      0.672
91I                 2:39      0.636
91I                 2:42      0.604
91I                 2:45      0.575
91I                 2:48      0.548
91I                 2:51      0.524
91I                 2:54      0.502
91I                 2:57      0.483
91I                 3:00      0.465
91Ib                0:00      0.938
91Ib                0:03      1.520
91Ib                0:06      2.956
91Ib                0:09      4.875
91Ib                0:12      7.005
91Ib                0:15      9.156
91Ib                0:18      11.197
91Ib                0:21      13.043
91Ib                0:24      14.643
91Ib                0:27      15.975
91Ib                0:30      17.030
91Ib                0:33      17.818
91Ib                0:36      18.352
91Ib                0:39      18.655
91Ib                0:42      18.750
91Ib                0:45      18.663
91Ib                0:48      18.421
91Ib                0:51      18.047
91Ib                0:54      17.566
91Ib                0:57      16.998
91Ib                1:00      16.364
91Ib                1:03      15.681
91Ib                1:06      14.965
91Ib                1:09      14.228
91Ib                1:12      13.482
91Ib                1:15      12.738
91Ib                1:18      12.002
91Ib                1:21      11.280
91Ib                1:24      10.580
91Ib                1:27      9.904
91Ib                1:30      9.256
91Ib                1:33      8.637
91Ib                1:36      8.050
91Ib                1:39      7.495
91Ib                1:42      6.971
91Ib                1:45      6.480
91Ib                1:48      6.021
91Ib                1:51      5.593
91Ib                1:54      5.194
91Ib                1:57      4.824
91Ib                2:00      4.481
91Ib                2:03      4.165
91Ib                2:06      3.873
91Ib                2:09      3.606
91Ib                2:12      3.359
91Ib                2:15      3.134
91Ib                2:18      2.926
91Ib                2:21      2.737
91Ib                2:24      2.565
91Ib                2:27      2.408
91Ib                2:30      2.264
91Ib                2:33      2.135
91Ib                2:36      2.016
91Ib                2:39      1.909
91Ib                2:42      1.812
91Ib                2:45      1.724
91Ib                2:48      1.644
91Ib                2:51      1.572
91Ib                2:54      1.507
91Ib                2:57      1.448
91Ib                3:00      1.395
92C                 0:00      0.800
92C                 0:03      1.296
92C                 0:06      2.522
92C                 0:09      4.160
92C                 0:12      5.978
92C                 0:15      7.813
92C                 0:18      9.555
92C                 0:21      11.130
92C                 0:24      12.495
92C                 0:27      13.632
92C                 0:30      14.533
92C                 0:33      15.204
92C                 0:36      15.661
92C                 0:39      15.919
92C                 0:42      16.000
92C                 0:45      15.926
92C                 0:48      15.719
92C                 0:51      15.400
92C                 0:54      14.989
92C                 0:57      14.505
92C                 1:00      13.964
92C                 1:03      13.382
92C                 1:06      12.770
92C                 1:09      12.142
92C                 1:12      11.505
92C                 1:15      10.870
92C                 1:18      10.241
92C                 1:21      9.626
92C                 1:24      9.028
92C                 1:27      8.451
92C                 1:30      7.899
92C                 1:33      7.370
92C                 1:36      6.869
92C                 1:39      6.395
92C                 1:42      5.949
92C                 1:45      5.530
92C                 1:48      5.138
92C                 1:51      4.772
92C                 1:54      4.432
92C                 1:57      4.117
92C                 2:00      3.824
92C                 2:03      3.554
92C                 2:06      3.305
92C                 2:09      3.076
92C                 2:12      2.866
92C                 2:15      2.674
92C                 2:18      2.498
92C                 2:21      2.336
92C                 2:24      2.189
92C                 2:27      2.054
92C                 2:30      1.933
92C                 2:33      1.821
92C                 2:36      1.720
92C                 2:39      1.629
92C                 2:42      1.546
92C                 2:45      1.471
92C                 2:48      1.403
92C                 2:51      1.341
92C                 2:54      1.286
92C                 2:57      1.236
92C                 3:00      1.191
93C                 0:00      0.400
93C                 0:03      0.648
93C                 0:06      1.261
93C                 0:09      2.080
93C                 0:12      2.989
93C                 0:15      3.906
93C                 0:18      4.777
93C                 0:21      5.564
93C                 0:24      6.248
93C                 0:27      6.816
93C                 0:30      7.266
93C                 0:33      7.603
93C                 0:36      7.830
93C                 0:39      7.960
93C                 0:42      8.000
93C                 0:45      7.963
93C                 0:48      7.859
93C                 0:51      7.700
93C                 0:54      7.495
93C                 0:57      7.253
93C                 1:00      6.982
93C                 1:03      6.691
93C                 1:06      6.385
93C                 1:09      6.071
93C                 1:12      5.753
93C                 1:15      5.434
93C                 1:18      5.120
93C                 1:21      4.813
93C                 1:24      4.514
93C                 1:27      4.226
93C                 1:30      3.949
93C                 1:33      3.685
93C                 1:36      3.434
93C                 1:39      3.197
93C                 1:42      2.974
93C                 1:45      2.765
93C                 1:48      2.569
93C                 1:51      2.386
93C                 1:54      2.216
93C                 1:57      2.058
93C                 2:00      1.912
93C                 2:03      1.777
93C                 2:06      1.653
93C                 2:09      1.538
93C                 2:12      1.433
93C                 2:15      1.337
93C                 2:18      1.248
93C                 2:21      1.168
93C                 2:24      1.095
93C                 2:27      1.028
93C                 2:30      0.966
93C                 2:33      0.910
93C                 2:36      0.860
93C                 2:39      0.815
93C                 2:42      0.773
93C                 2:45      0.736
93C                 2:48      0.702
93C                 2:51      0.670
93C                 2:54      0.643
93C                 2:57      0.618
93C                 3:00      0.596
94C                 0:00      0.637
94C                 0:03      1.034
94C                 0:06      2.010
94C                 0:09      3.314
94C                 0:12      4.763
94C                 0:15      6.226
94C                 0:18      7.614
94C                 0:21      8.869
94C                 0:24      9.957
94C                 0:27      10.863
94C                 0:30      11.581
94C                 0:33      12.116
94C                 0:36      12.479
94C                 0:39      12.685
94C                 0:42      12.750
94C                 0:45      12.691
94C                 0:48      12.526
94C                 0:51      12.272
94C                 0:54      11.944
94C                 0:57      11.559
94C                 1:00      11.127
94C                 1:03      10.664
94C                 1:06      10.176
94C                 1:09      9.675
94C                 1:12      9.168
94C                 1:15      8.662
94C                 1:18      8.161
94C                 1:21      7.671
94C                 1:24      7.194
94C                 1:27      6.735
94C                 1:30      6.294
94C                 1:33      5.873
94C                 1:36      5.474
94C                 1:39      5.096
94C                 1:42      4.740
94C                 1:45      4.407
94C                 1:48      4.094
94C                 1:51      3.803
94C                 1:54      3.531
94C                 1:57      3.280
94C                 2:00      3.047
94C                 2:03      2.833
94C                 2:06      2.634
94C                 2:09      2.451
94C                 2:12      2.284
94C                 2:15      2.131
94C                 2:18      1.990
94C                 2:21      1.861
94C                 2:24      1.744
94C                 2:27      1.637
94C                 2:30      1.540
94C                 2:33      1.452
94C                 2:36      1.371
94C                 2:39      1.298
94C                 2:42      1.232
94C                 2:45      1.172
94C                 2:48      1.118
94C                 2:51      1.069
94C                 2:54      1.024
94C                 2:57      0.985
94C                 3:00      0.949
94I                 0:00      0.212
94I                 0:03      0.344
94I                 0:06      0.670
94I                 0:09      1.105
94I                 0:12      1.588
94I                 0:15      2.075
94I                 0:18      2.538
94I                 0:21      2.957
94I                 0:24      3.319
94I                 0:27      3.621
94I                 0:30      3.860
94I                 0:33      4.038
94I                 0:36      4.160
94I                 0:39      4.229
94I                 0:42      4.250
94I                 0:45      4.231
94I                 0:48      4.176
94I                 0:51      4.090
94I                 0:54      3.982
94I                 0:57      3.853
94I                 1:00      3.709
94I                 1:03      3.554
94I                 1:06      3.392
94I                 1:09      3.225
94I                 1:12      3.056
94I                 1:15      2.887
94I                 1:18      2.720
94I                 1:21      2.557
94I                 1:24      2.398
94I                 1:27      2.245
94I                 1:30      2.098
94I                 1:33      1.958
94I                 1:36      1.825
94I                 1:39      1.698
94I                 1:42      1.580
94I                 1:45      1.469
94I                 1:48      1.365
94I                 1:51      1.268
94I                 1:54      1.177
94I                 1:57      1.093
94I                 2:00      1.016
94I                 2:03      0.944
94I                 2:06      0.878
94I                 2:09      0.817
94I                 2:12      0.761
94I                 2:15      0.710
94I                 2:18      0.663
94I                 2:21      0.621
94I                 2:24      0.582
94I                 2:27      0.546
94I                 2:30      0.513
94I                 2:33      0.484
94I                 2:36      0.457
94I                 2:39      0.432
94I                 2:42      0.410
94I                 2:45      0.391
94I                 2:48      0.372
94I                 2:51      0.356
94I                 2:54      0.342
94I                 2:57      0.329
94I                 3:00      0.317
95C                 0:00      0.850
95C                 0:03      1.378
95C                 0:06      2.680
95C                 0:09      4.420
95C                 0:12      6.351
95C                 0:15      8.302
95C                 0:18      10.152
95C                 0:21      11.825
95C                 0:24      13.277
95C                 0:27      14.483
95C                 0:30      15.441
95C                 0:33      16.155
95C                 0:36      16.640
95C                 0:39      16.913
95C                 0:42      17.000
95C                 0:45      16.922
95C                 0:48      16.701
95C                 0:51      16.363
95C                 0:54      15.926
95C                 0:57      15.412
95C                 1:00      14.837
95C                 1:03      14.218
95C                 1:06      13.568
95C                 1:09      12.900
95C                 1:12      12.224
95C                 1:15      11.549
95C                 1:18      10.882
95C                 1:21      10.227
95C                 1:24      9.592
95C                 1:27      8.980
95C                 1:30      8.392
95C                 1:33      7.831
95C                 1:36      7.298
95C                 1:39      6.795
95C                 1:42      6.321
95C                 1:45      5.875
95C                 1:48      5.459
95C                 1:51      5.071
95C                 1:54      4.709
95C                 1:57      4.373
95C                 2:00      4.063
95C                 2:03      3.776
95C                 2:06      3.512
95C                 2:09      3.269
95C                 2:12      3.046
95C                 2:15      2.841
95C                 2:18      2.654
95C                 2:21      2.482
95C                 2:24      2.325
95C                 2:27      2.183
95C                 2:30      2.053
95C                 2:33      1.935
95C                 2:36      1.828
95C                 2:39      1.730
95C                 2:42      1.643
95C                 2:45      1.562
95C                 2:48      1.490
95C                 2:51      1.425
95C                 2:54      1.367
95C                 2:57      1.313
95C                 3:00      1.265
96I                 0:00      0.163
96I                 0:03      0.264
96I                 0:06      0.512
96I                 0:09      0.845
96I                 0:12      1.214
96I                 0:15      1.587
96I                 0:18      1.940
96I                 0:21      2.260
96I                 0:24      2.538
96I                 0:27      2.769
96I                 0:30      2.952
96I                 0:33      3.088
96I                 0:36      3.181
96I                 0:39      3.233
96I                 0:42      3.250
96I                 0:45      3.235
96I                 0:48      3.193
96I                 0:51      3.128
96I                 0:54      3.045
96I                 0:57      2.946
96I                 1:00      2.837
96I                 1:03      2.718
96I                 1:06      2.594
96I                 1:09      2.466
96I                 1:12      2.337
96I                 1:15      2.208
96I                 1:18      2.080
96I                 1:21      1.956
96I                 1:24      1.834
96I                 1:27      1.716
96I                 1:30      1.605
96I                 1:33      1.497
96I                 1:36      1.395
96I                 1:39      1.299
96I                 1:42      1.208
96I                 1:45      1.123
96I                 1:48      1.044
96I                 1:51      0.970
96I                 1:54      0.900
96I                 1:57      0.836
96I                 2:00      0.777
96I                 2:03      0.722
96I                 2:06      0.671
96I                 2:09      0.625
96I                 2:12      0.583
96I                 2:15      0.543
96I                 2:18      0.507
96I                 2:21      0.474
96I                 2:24      0.445
96I                 2:27      0.417
96I                 2:30      0.393
96I                 2:33      0.370
96I                 2:36      0.349
96I                 2:39      0.331
96I                 2:42      0.314
96I                 2:45      0.299
96I                 2:48      0.285
96I                 2:51      0.273
96I                 2:54      0.261
96I                 2:57      0.251
96I                 3:00      0.242
96Ib                0:00      0.487
96Ib                0:03      0.790
96Ib                0:06      1.537
96Ib                0:09      2.535
96Ib                0:12      3.643
96Ib                0:15      4.761
96Ib                0:18      5.822
96Ib                0:21      6.782
96Ib                0:24      7.614
96Ib                0:27      8.307
96Ib                0:30      8.856
96Ib                0:33      9.265
96Ib                0:36      9.543
96Ib                0:39      9.700
96Ib                0:42      9.750
96Ib                0:45      9.705
96Ib                0:48      9.579
96Ib                0:51      9.384
96Ib                0:54      9.134
96Ib                0:57      8.839
96Ib                1:00      8.509
96Ib                1:03      8.155
96Ib                1:06      7.782
96Ib                1:09      7.399
96Ib                1:12      7.011
96Ib                1:15      6.623
96Ib                1:18      6.241
96Ib                1:21      5.866
96Ib                1:24      5.502
96Ib                1:27      5.150
96Ib                1:30      4.813
96Ib                1:33      4.492
96Ib                1:36      4.186
96Ib                1:39      3.897
96Ib                1:42      3.625
96Ib                1:45      3.369
96Ib                1:48      3.131
96Ib                1:51      2.908
96Ib                1:54      2.700
96Ib                1:57      2.509
96Ib                2:00      2.330
96Ib                2:03      2.166
96Ib                2:06      2.014
96Ib                2:09      1.875
96Ib                2:12      1.747
96Ib                2:15      1.629
96Ib                2:18      1.522
96Ib                2:21      1.423
96Ib                2:24      1.334
96Ib                2:27      1.252
96Ib                2:30      1.177
96Ib                2:33      1.110
96Ib                2:36      1.048
96Ib                2:39      0.993
96Ib                2:42      0.942
96Ib                2:45      0.896
96Ib                2:48      0.855
96Ib                2:51      0.818
96Ib                2:54      0.783
96Ib                2:57      0.753
96Ib                3:00      0.726
97C                 0:00      0.787
97C                 0:03      1.276
97C                 0:06      2.483
97C                 0:09      4.095
97C                 0:12      5.884
97C                 0:15      7.691
97C                 0:18      9.405
97C                 0:21      10.956
97C                 0:24      12.300
97C                 0:27      13.418
97C                 0:30      14.306
97C                 0:33      14.967
97C                 0:36      15.416
97C                 0:39      15.670
97C                 0:42      15.750
97C                 0:45      15.678
97C                 0:48      15.473
97C                 0:51      15.159
97C                 0:54      14.755
97C                 0:57      14.278
97C                 1:00      13.746
97C                 1:03      13.172
97C                 1:06      12.570
97C                 1:09      11.951
97C                 1:12      11.325
97C                 1:15      10.700
97C                 1:18      10.081
97C                 1:21      9.476
97C                 1:24      8.887
97C                 1:27      8.319
97C                 1:30      7.775
97C                 1:33      7.255
97C                 1:36      6.762
97C                 1:39      6.295
97C                 1:42      5.856
97C                 1:45      5.444
97C                 1:48      5.058
97C                 1:51      4.697
97C                 1:54      4.362
97C                 1:57      4.052
97C                 2:00      3.764
97C                 2:03      3.499
97C                 2:06      3.254
97C                 2:09      3.029
97C                 2:12      2.821
97C                 2:15      2.632
97C                 2:18      2.458
97C                 2:21      2.300
97C                 2:24      2.155
97C                 2:27      2.022
97C                 2:30      1.902
97C                 2:33      1.793
97C                 2:36      1.694
97C                 2:39      1.603
97C                 2:42      1.522
97C                 2:45      1.448
97C                 2:48      1.381
97C                 2:51      1.321
97C                 2:54      1.266
97C                 2:57      1.216
97C                 3:00      1.172
97I                 0:00      0.263
97I                 0:03      0.425
97I                 0:06      0.828
97I                 0:09      1.365
97I                 0:12      1.962
97I                 0:15      2.563
97I                 0:18      3.135
97I                 0:21      3.652
97I                 0:24      4.100
97I                 0:27      4.473
97I                 0:30      4.769
97I                 0:33      4.989
97I                 0:36      5.138
97I                 0:39      5.223
97I                 0:42      5.250
97I                 0:45      5.226
97I                 0:48      5.158
97I                 0:51      5.053
97I                 0:54      4.918
97I                 0:57      4.760
97I                 1:00      4.582
97I                 1:03      4.391
97I                 1:06      4.190
97I                 1:09      3.984
97I                 1:12      3.775
97I                 1:15      3.567
97I                 1:18      3.361
97I                 1:21      3.159
97I                 1:24      2.962
97I                 1:27      2.773
97I                 1:30      2.591
97I                 1:33      2.418
97I                 1:36      2.254
97I                 1:39      2.099
97I                 1:42      1.952
97I                 1:45      1.815
97I                 1:48      1.686
97I                 1:51      1.566
97I                 1:54      1.454
97I                 1:57      1.351
97I                 2:00      1.255
97I                 2:03      1.167
97I                 2:06      1.085
97I                 2:09      1.010
97I                 2:12      0.941
97I                 2:15      0.877
97I                 2:18      0.820
97I                 2:21      0.766
97I                 2:24      0.718
97I                 2:27      0.674
97I                 2:30      0.634
97I                 2:33      0.598
97I                 2:36      0.565
97I                 2:39      0.534
97I                 2:42      0.507
97I                 2:45      0.482
97I                 2:48      0.461
97I                 2:51      0.440
97I                 2:54      0.422
97I                 2:57      0.406
97I                 3:00      0.391
98C                 0:00      0.675
98C                 0:03      1.094
98C                 0:06      2.128
98C                 0:09      3.510
98C                 0:12      5.043
98C                 0:15      6.593
98C                 0:18      8.062
98C                 0:21      9.390
98C                 0:24      10.543
98C                 0:27      11.502
98C                 0:30      12.262
98C                 0:33      12.829
98C                 0:36      13.213
98C                 0:39      13.431
98C                 0:42      13.500
98C                 0:45      13.438
98C                 0:48      13.263
98C                 0:51      12.994
98C                 0:54      12.648
98C                 0:57      12.239
98C                 1:00      11.783
98C                 1:03      11.290
98C                 1:06      10.774
98C                 1:09      10.245
98C                 1:12      9.707
98C                 1:15      9.171
98C                 1:18      8.641
98C                 1:21      8.122
98C                 1:24      7.617
98C                 1:27      7.131
98C                 1:30      6.664
98C                 1:33      6.219
98C                 1:36      5.796
98C                 1:39      5.396
98C                 1:42      5.019
98C                 1:45      4.665
98C                 1:48      4.335
98C                 1:51      4.027
98C                 1:54      3.740
98C                 1:57      3.473
98C                 2:00      3.227
98C                 2:03      2.999
98C                 2:06      2.789
98C                 2:09      2.596
98C                 2:12      2.418
98C                 2:15      2.256
98C                 2:18      2.107
98C                 2:21      1.971
98C                 2:24      1.847
98C                 2:27      1.734
98C                 2:30      1.631
98C                 2:33      1.537
98C                 2:36      1.452
98C                 2:39      1.375
98C                 2:42      1.304
98C                 2:45      1.241
98C                 2:48      1.183
98C                 2:51      1.132
98C                 2:54      1.085
98C                 2:57      1.043
98C                 3:00      1.004
98I                 0:00      0.225
98I                 0:03      0.364
98I                 0:06      0.710
98I                 0:09      1.170
98I                 0:12      1.681
98I                 0:15      2.197
98I                 0:18      2.687
98I                 0:21      3.130
98I                 0:24      3.514
98I                 0:27      3.834
98I                 0:30      4.088
98I                 0:33      4.277
98I                 0:36      4.404
98I                 0:39      4.477
98I                 0:42      4.500
98I                 0:45      4.479
98I                 0:48      4.421
98I                 0:51      4.332
98I                 0:54      4.216
98I                 0:57      4.080
98I                 1:00      3.928
98I                 1:03      3.764
98I                 1:06      3.591
98I                 1:09      3.415
98I                 1:12      3.236
98I                 1:15      3.057
98I                 1:18      2.881
98I                 1:21      2.708
98I                 1:24      2.539
98I                 1:27      2.377
98I                 1:30      2.221
98I                 1:33      2.073
98I                 1:36      1.932
98I                 1:39      1.798
98I                 1:42      1.673
98I                 1:45      1.555
98I                 1:48      1.445
98I                 1:51      1.342
98I                 1:54      1.246
98I                 1:57      1.157
98I                 2:00      1.075
98I                 2:03      1.000
98I                 2:06      0.929
98I                 2:09      0.866
98I                 2:12      0.806
98I                 2:15      0.752
98I                 2:18      0.703
98I                 2:21      0.657
98I                 2:24      0.616
98I                 2:27      0.578
98I                 2:30      0.543
98I                 2:33      0.512
98I                 2:36      0.484
98I                 2:39      0.458
98I                 2:42      0.435
98I                 2:45      0.413
98I                 2:48      0.395
98I                 2:51      0.378
98I                 2:54      0.361
98I                 2:57      0.347
98I                 3:00      0.335
99C                 0:00      0.000
99C                 0:03      0.000
99C                 0:06      0.000
99C                 0:09      0.000
99C                 0:12      0.000
99C                 0:15      0.000
99C                 0:18      0.000
99C                 0:21      0.000
99C                 0:24      0.000
99C                 0:27      0.000
99C                 0:30      0.000
99C                 0:33      0.000
99C                 0:36      0.000
99C                 0:39      0.000
99C                 0:42      0.000
99C                 0:45      0.000
99C                 0:48      0.000
99C                 0:51      0.000
99C                 0:54      0.000
99C                 0:57      0.000
99C                 1:00      0.000
99C                 1:03      0.000
99C                 1:06      0.000
99C                 1:09      0.000
99C                 1:12      0.000
99C                 1:15      0.000
99C                 1:18      0.000
99C                 1:21      0.000
99C                 1:24      0.000
99C                 1:27      0.000
99C                 1:30      0.000
99C                 1:33      0.000
99C                 1:36      0.000
99C                 1:39      0.000
99C                 1:42      0.000
99C                 1:45      0.000
99C                 1:48      0.000
99C                 1:51      0.000
99C                 1:54      0.000
99C                 1:57      0.000
99C                 2:00      0.000
99C                 2:03      0.000
99C                 2:06      0.000
99C                 2:09      0.000
99C                 2:12      0.000
99C                 2:15      0.000
99C                 2:18      0.000
99C                 2:21      0.000
99C                 2:24      0.000
99C                 2:27      0.000
99C                 2:30      0.000
99C                 2:33      0.000
99C                 2:36      0.000
99C                 2:39      0.000
99C                 2:42      0.000
99C                 2:45      0.000
99C                 2:48      0.000
99C                 2:51      0.000
99C                 2:54      0.000
99C                 2:57      0.000
99C                 3:00      0.000
99I                 0:00      0.650
99I                 0:03      1.054
99I                 0:06      2.050
99I                 0:09      3.380
99I                 0:12      4.857
99I                 0:15      6.348
99I                 0:18      7.763
99I                 0:21      9.043
99I                 0:24      10.152
99I                 0:27      11.075
99I                 0:30      11.808
99I                 0:33      12.354
99I                 0:36      12.724
99I                 0:39      12.934
99I                 0:42      13.000
99I                 0:45      12.940
99I                 0:48      12.772
99I                 0:51      12.512
99I                 0:54      12.179
99I                 0:57      11.786
99I                 1:00      11.346
99I                 1:03      10.873
99I                 1:06      10.376
99I                 1:09      9.865
99I                 1:12      9.348
99I                 1:15      8.832
99I                 1:18      8.321
99I                 1:21      7.821
99I                 1:24      7.335
99I                 1:27      6.867
99I                 1:30      6.418
99I                 1:33      5.989
99I                 1:36      5.581
99I                 1:39      5.196
99I                 1:42      4.833
99I                 1:45      4.493
99I                 1:48      4.175
99I                 1:51      3.877
99I                 1:54      3.601
99I                 1:57      3.345
99I                 2:00      3.107
99I                 2:03      2.888
99I                 2:06      2.686
99I                 2:09      2.500
99I                 2:12      2.329
99I                 2:15      2.172
99I                 2:18      2.029
99I                 2:21      1.898
99I                 2:24      1.778
99I                 2:27      1.669
99I                 2:30      1.570
99I                 2:33      1.480
99I                 2:36      1.398
99I                 2:39      1.323
99I                 2:42      1.256
99I                 2:45      1.195
99I                 2:48      1.140
99I                 2:51      1.090
99I                 2:54      1.045
99I                 2:57      1.004
99I                 3:00      0.968
100C                0:00      0.487
100C                0:03      0.790
100C                0:06      1.537
100C                0:09      2.535
100C                0:12      3.643
100C                0:15      4.761
100C                0:18      5.822
100C                0:21      6.782
100C                0:24      7.614
100C                0:27      8.307
100C                0:30      8.856
100C                0:33      9.265
100C                0:36      9.543
100C                0:39      9.700
100C                0:42      9.750
100C                0:45      9.705
100C                0:48      9.579
100C                0:51      9.384
100C                0:54      9.134
100C                0:57      8.839
100C                1:00      8.509
100C                1:03      8.155
100C                1:06      7.782
100C                1:09      7.399
100C                1:12      7.011
100C                1:15      6.623
100C                1:18      6.241
100C                1:21      5.866
100C                1:24      5.502
100C                1:27      5.150
100C                1:30      4.813
100C                1:33      4.492
100C                1:36      4.186
100C                1:39      3.897
100C                1:42      3.625
100C                1:45      3.369
100C                1:48      3.131
100C                1:51      2.908
100C                1:54      2.700
100C                1:57      2.509
100C                2:00      2.330
100C                2:03      2.166
100C                2:06      2.014
100C                2:09      1.875
100C                2:12      1.747
100C                2:15      1.629
100C                2:18      1.522
100C                2:21      1.423
100C                2:24      1.334
100C                2:27      1.252
100C                2:30      1.177
100C                2:33      1.110
100C                2:36      1.048
100C                2:39      0.993
100C                2:42      0.942
100C                2:45      0.896
100C                2:48      0.855
100C                2:51      0.818
100C                2:54      0.783
100C                2:57      0.753
100C                3:00      0.726
100I                0:00      0.163
100I                0:03      0.264
100I                0:06      0.512
100I                0:09      0.845
100I                0:12      1.214
100I                0:15      1.587
100I                0:18      1.940
100I                0:21      2.260
100I                0:24      2.538
100I                0:27      2.769
100I                0:30      2.952
100I                0:33      3.088
100I                0:36      3.181
100I                0:39      3.233
100I                0:42      3.250
100I                0:45      3.235
100I                0:48      3.193
100I                0:51      3.128
100I                0:54      3.045
100I                0:57      2.946
100I                1:00      2.837
100I                1:03      2.718
100I                1:06      2.594
100I                1:09      2.466
100I                1:12      2.337
100I                1:15      2.208
100I                1:18      2.080
100I                1:21      1.956
100I                1:24      1.834
100I                1:27      1.716
100I                1:30      1.605
100I                1:33      1.497
100I                1:36      1.395
100I                1:39      1.299
100I                1:42      1.208
100I                1:45      1.123
100I                1:48      1.044
100I                1:51      0.970
100I                1:54      0.900
100I                1:57      0.836
100I                2:00      0.777
100I                2:03      0.722
100I                2:06      0.671
100I                2:09      0.625
100I                2:12      0.583
100I                2:15      0.543
100I                2:18      0.507
100I                2:21      0.474
100I                2:24      0.445
100I                2:27      0.417
100I                2:30      0.393
100I                2:33      0.370
100I                2:36      0.349
100I                2:39      0.331
100I                2:42      0.314
100I                2:45      0.299
100I                2:48      0.285
100I                2:51      0.273
100I                2:54      0.261
100I                2:57      0.251
100I                3:00      0.242
101C                0:00      0.400
101C                0:03      0.648
101C                0:06      1.261
101C                0:09      2.080
101C                0:12      2.989
101C                0:15      3.906
101C                0:18      4.777
101C                0:21      5.564
101C                0:24      6.248
101C                0:27      6.816
101C                0:30      7.266
101C                0:33      7.603
101C                0:36      7.830
101C                0:39      7.960
101C                0:42      8.000
101C                0:45      7.963
101C                0:48      7.859
101C                0:51      7.700
101C                0:54      7.495
101C                0:57      7.253
101C                1:00      6.982
101C                1:03      6.691
101C                1:06      6.385
101C                1:09      6.071
101C                1:12      5.753
101C                1:15      5.434
101C                1:18      5.120
101C                1:21      4.813
101C                1:24      4.514
101C                1:27      4.226
101C                1:30      3.949
101C                1:33      3.685
101C                1:36      3.434
101C                1:39      3.197
101C                1:42      2.974
101C                1:45      2.765
101C                1:48      2.569
101C                1:51      2.386
101C                1:54      2.216
101C                1:57      2.058
101C                2:00      1.912
101C                2:03      1.777
101C                2:06      1.653
101C                2:09      1.538
101C                2:12      1.433
101C                2:15      1.337
101C                2:18      1.248
101C                2:21      1.168
101C                2:24      1.095
101C                2:27      1.028
101C                2:30      0.966
101C                2:33      0.910
101C                2:36      0.860
101C                2:39      0.815
101C                2:42      0.773
101C                2:45      0.736
101C                2:48      0.702
101C                2:51      0.670
101C                2:54      0.643
101C                2:57      0.618
101C                3:00      0.596
102C                0:00      0.800
102C                0:03      1.296
102C                0:06      2.522
102C                0:09      4.160
102C                0:12      5.978
102C                0:15      7.813
102C                0:18      9.555
102C                0:21      11.130
102C                0:24      12.495
102C                0:27      13.632
102C                0:30      14.533
102C                0:33      15.204
102C                0:36      15.661
102C                0:39      15.919
102C                0:42      16.000
102C                0:45      15.926
102C                0:48      15.719
102C                0:51      15.400
102C                0:54      14.989
102C                0:57      14.505
102C                1:00      13.964
102C                1:03      13.382
102C                1:06      12.770
102C                1:09      12.142
102C                1:12      11.505
102C                1:15      10.870
102C                1:18      10.241
102C                1:21      9.626
102C                1:24      9.028
102C                1:27      8.451
102C                1:30      7.899
102C                1:33      7.370
102C                1:36      6.869
102C                1:39      6.395
102C                1:42      5.949
102C                1:45      5.530
102C                1:48      5.138
102C                1:51      4.772
102C                1:54      4.432
102C                1:57      4.117
102C                2:00      3.824
102C                2:03      3.554
102C                2:06      3.305
102C                2:09      3.076
102C                2:12      2.866
102C                2:15      2.674
102C                2:18      2.498
102C                2:21      2.336
102C                2:24      2.189
102C                2:27      2.054
102C                2:30      1.933
102C                2:33      1.821
102C                2:36      1.720
102C                2:39      1.629
102C                2:42      1.546
102C                2:45      1.471
102C                2:48      1.403
102C                2:51      1.341
102C                2:54      1.286
102C                2:57      1.236
102C                3:00      1.191
103C                0:00      0.800
103C                0:03      1.296
103C                0:06      2.522
103C                0:09      4.160
103C                0:12      5.978
103C                0:15      7.813
103C                0:18      9.555
103C                0:21      11.130
103C                0:24      12.495
103C                0:27      13.632
103C                0:30      14.533
103C                0:33      15.204
103C                0:36      15.661
103C                0:39      15.919
103C                0:42      16.000
103C                0:45      15.926
103C                0:48      15.719
103C                0:51      15.400
103C                0:54      14.989
103C                0:57      14.505
103C                1:00      13.964
103C                1:03      13.382
103C                1:06      12.770
103C                1:09      12.142
103C                1:12      11.505
103C                1:15      10.870
103C                1:18      10.241
103C                1:21      9.626
103C                1:24      9.028
103C                1:27      8.451
103C                1:30      7.899
103C                1:33      7.370
103C                1:36      6.869
103C                1:39      6.395
103C                1:42      5.949
103C                1:45      5.530
103C                1:48      5.138
103C                1:51      4.772
103C                1:54      4.432
103C                1:57      4.117
103C                2:00      3.824
103C                2:03      3.554
103C                2:06      3.305
103C                2:09      3.076
103C                2:12      2.866
103C                2:15      2.674
103C                2:18      2.498
103C                2:21      2.336
103C                2:24      2.189
103C                2:27      2.054
103C                2:30      1.933
103C                2:33      1.821
103C                2:36      1.720
103C                2:39      1.629
103C                2:42      1.546
103C                2:45      1.471
103C                2:48      1.403
103C                2:51      1.341
103C                2:54      1.286
103C                2:57      1.236
103C                3:00      1.191
104C                0:00      0.650
104C                0:03      1.054
104C                0:06      2.050
104C                0:09      3.380
104C                0:12      4.857
104C                0:15      6.348
104C                0:18      7.763
104C                0:21      9.043
104C                0:24      10.152
104C                0:27      11.075
104C                0:30      11.808
104C                0:33      12.354
104C                0:36      12.724
104C                0:39      12.934
104C                0:42      13.000
104C                0:45      12.940
104C                0:48      12.772
104C                0:51      12.512
104C                0:54      12.179
104C                0:57      11.786
104C                1:00      11.346
104C                1:03      10.873
104C                1:06      10.376
104C                1:09      9.865
104C                1:12      9.348
104C                1:15      8.832
104C                1:18      8.321
104C                1:21      7.821
104C                1:24      7.335
104C                1:27      6.867
104C                1:30      6.418
104C                1:33      5.989
104C                1:36      5.581
104C                1:39      5.196
104C                1:42      4.833
104C                1:45      4.493
104C                1:48      4.175
104C                1:51      3.877
104C                1:54      3.601
104C                1:57      3.345
104C                2:00      3.107
104C                2:03      2.888
104C                2:06      2.686
104C                2:09      2.500
104C                2:12      2.329
104C                2:15      2.172
104C                2:18      2.029
104C                2:21      1.898
104C                2:24      1.778
104C                2:27      1.669
104C                2:30      1.570
104C                2:33      1.480
104C                2:36      1.398
104C                2:39      1.323
104C                2:42      1.256
104C                2:45      1.195
104C                2:48      1.140
104C                2:51      1.090
104C                2:54      1.045
104C                2:57      1.004
104C                3:00      0.968
105C                0:00      0.650
105C                0:03      1.054
105C                0:06      2.050
105C                0:09      3.380
105C                0:12      4.857
105C                0:15      6.348
105C                0:18      7.763
105C                0:21      9.043
105C                0:24      10.152
105C                0:27      11.075
105C                0:30      11.808
105C                0:33      12.354
105C                0:36      12.724
105C                0:39      12.934
105C                0:42      13.000
105C                0:45      12.940
105C                0:48      12.772
105C                0:51      12.512
105C                0:54      12.179
105C                0:57      11.786
105C                1:00      11.346
105C                1:03      10.873
105C                1:06      10.376
105C                1:09      9.865
105C                1:12      9.348
105C                1:15      8.832
105C                1:18      8.321
105C                1:21      7.821
105C                1:24      7.335
105C                1:27      6.867
105C                1:30      6.418
105C                1:33      5.989
105C                1:36      5.581
105C                1:39      5.196
105C                1:42      4.833
105C                1:45      4.493
105C                1:48      4.175
105C                1:51      3.877
105C                1:54      3.601
105C                1:57      3.345
105C                2:00      3.107
105C                2:03      2.888
105C                2:06      2.686
105C                2:09      2.500
105C                2:12      2.329
105C                2:15      2.172
105C                2:18      2.029
105C                2:21      1.898
105C                2:24      1.778
105C                2:27      1.669
105C                2:30      1.570
105C                2:33      1.480
105C                2:36      1.398
105C                2:39      1.323
105C                2:42      1.256
105C                2:45      1.195
105C                2:48      1.140
105C                2:51      1.090
105C                2:54      1.045
105C                2:57      1.004
105C                3:00      0.968
106C                0:00      0.450
106C                0:03      0.730
106C                0:06      1.419
106C                0:09      2.340
106C                0:12      3.362
106C                0:15      4.395
106C                0:18      5.375
106C                0:21      6.261
106C                0:24      7.029
106C                0:27      7.668
106C                0:30      8.175
106C                0:33      8.553
106C                0:36      8.809
106C                0:39      8.954
106C                0:42      9.000
106C                0:45      8.959
106C                0:48      8.842
106C                0:51      8.662
106C                0:54      8.431
106C                0:57      8.159
106C                1:00      7.855
106C                1:03      7.527
106C                1:06      7.183
106C                1:09      6.830
106C                1:12      6.471
106C                1:15      6.114
106C                1:18      5.761
106C                1:21      5.415
106C                1:24      5.079
106C                1:27      4.754
106C                1:30      4.443
106C                1:33      4.146
106C                1:36      3.864
106C                1:39      3.598
106C                1:42      3.346
106C                1:45      3.111
106C                1:48      2.890
106C                1:51      2.684
106C                1:54      2.493
106C                1:57      2.316
106C                2:00      2.151
106C                2:03      2.000
106C                2:06      1.859
106C                2:09      1.730
106C                2:12      1.613
106C                2:15      1.504
106C                2:18      1.405
106C                2:21      1.314
106C                2:24      1.231
106C                2:27      1.155
106C                2:30      1.087
106C                2:33      1.024
106C                2:36      0.968
106C                2:39      0.916
106C                2:42      0.870
106C                2:45      0.828
106C                2:48      0.789
106C                2:51      0.754
106C                2:54      0.724
106C                2:57      0.695
106C                3:00      0.670
107C                0:00      0.650
107C                0:03      1.054
107C                0:06      2.050
107C                0:09      3.380
107C                0:12      4.857
107C                0:15      6.348
107C                0:18      7.763
107C                0:21      9.043
107C                0:24      10.152
107C                0:27      11.075
107C                0:30      11.808
107C                0:33      12.354
107C                0:36      12.724
107C                0:39      12.934
107C                0:42      13.000
107C                0:45      12.940
107C                0:48      12.772
107C                0:51      12.512
107C                0:54      12.179
107C                0:57      11.786
107C                1:00      11.346
107C                1:03      10.873
107C                1:06      10.376
107C                1:09      9.865
107C                1:12      9.348
107C                1:15      8.832
107C                1:18      8.321
107C                1:21      7.821
107C                1:24      7.335
107C                1:27      6.867
107C                1:30      6.418
107C                1:33      5.989
107C                1:36      5.581
107C                1:39      5.196
107C                1:42      4.833
107C                1:45      4.493
107C                1:48      4.175
107C                1:51      3.877
107C                1:54      3.601
107C                1:57      3.345
107C                2:00      3.107
107C                2:03      2.888
107C                2:06      2.686
107C                2:09      2.500
107C                2:12      2.329
107C                2:15      2.172
107C                2:18      2.029
107C                2:21      1.898
107C                2:24      1.778
107C                2:27      1.669
107C                2:30      1.570
107C                2:33      1.480
107C                2:36      1.398
107C                2:39      1.323
107C                2:42      1.256
107C                2:45      1.195
107C                2:48      1.140
107C                2:51      1.090
107C                2:54      1.045
107C                2:57      1.004
107C                3:00      0.968
108C                0:00      0.850
108C                0:03      1.378
108C                0:06      2.680
108C                0:09      4.420
108C                0:12      6.351
108C                0:15      8.302
108C                0:18      10.152
108C                0:21      11.825
108C                0:24      13.277
108C                0:27      14.483
108C                0:30      15.441
108C                0:33      16.155
108C                0:36      16.640
108C                0:39      16.913
108C                0:42      17.000
108C                0:45      16.922
108C                0:48      16.701
108C                0:51      16.363
108C                0:54      15.926
108C                0:57      15.412
108C                1:00      14.837
108C                1:03      14.218
108C                1:06      13.568
108C                1:09      12.900
108C                1:12      12.224
108C                1:15      11.549
108C                1:18      10.882
108C                1:21      10.227
108C                1:24      9.592
108C                1:27      8.980
108C                1:30      8.392
108C                1:33      7.831
108C                1:36      7.298
108C                1:39      6.795
108C                1:42      6.321
108C                1:45      5.875
108C                1:48      5.459
108C                1:51      5.071
108C                1:54      4.709
108C                1:57      4.373
108C                2:00      4.063
108C                2:03      3.776
108C                2:06      3.512
108C                2:09      3.269
108C                2:12      3.046
108C                2:15      2.841
108C                2:18      2.654
108C                2:21      2.482
108C                2:24      2.325
108C                2:27      2.183
108C                2:30      2.053
108C                2:33      1.935
108C                2:36      1.828
108C                2:39      1.730
108C                2:42      1.643
108C                2:45      1.562
108C                2:48      1.490
108C                2:51      1.425
108C                2:54      1.367
108C                2:57      1.313
108C                3:00      1.265

[REPORT]
;;Reporting Options
SUBCATCHMENTS ALL
NODES ALL
LINKS ALL

[TAGS]

[MAP]
DIMENSIONS 637.440 6553.980 2263.120 7952.490
Units      Meters

[COORDINATES]
;;Node    X-Coord   Y-Coord   
;;------- -------------- --------------
1C        2145.390       7352.390       
2C        1982.510       7441.010       
2I        1982.510       7441.010       
3C        1784.490       7532.930       
3I        1784.490       7532.930       
4C        1632.280       7617.990       
4I        1632.280       7617.990       
5C        1452.890       7704.760       
6C        1317.860       7779.490       
7C        2233.120       7204.600       
8C        2097.160       7271.090       
9C        1932.990       7372.470       
10C       1835.940       7416.570       
11C       1747.320       7462.520       
12C       1650.500       7499.210       
13C       1588.000       7531.500       
13I       1588.000       7531.500       
14C       1524.170       7564.570       
15C       1460.840       7597.470       
16C       1397.460       7630.550       
16I       1397.460       7630.550       
17C       1333.260       7661.290       
18C       1202.870       7770.980       
19I       2204.200       7149.600       
19Ib      2204.200       7149.600       
20C       2065.540       7218.980       
20I       2065.540       7218.980       
21C       1996.740       7259.190       
22C       1880.410       7313.670       
22I       1880.410       7313.670       
23C       1803.790       7353.820       
23I       1803.790       7353.820       
24C       1715.030       7400.080       
25C       1144.170       7710.550       
26C       2157.490       7087.170       
27C       2093.600       7119.760       
28C       2029.410       7153.100       
28I       2029.410       7153.100       
29C       1963.140       7187.670       
30C       1905.840       7224.420       
31C       1831.540       7256.250       
31I       1831.540       7256.250       
32C       1765.150       7289.850       
33C       1681.290       7333.850       
34I       1600.040       7388.100       
34Ib      1600.040       7388.100       
35C       1544.460       7448.030       
36C       1481.470       7481.980       
37I       1419.460       7517.890       
37Ib      1419.460       7517.890       
38C       1356.120       7550.700       
39C       1279.690       7558.360       
40C       1197.640       7600.630       
40I       1197.640       7600.630       
41C       1114.680       7643.680       
42C       1917.320       7098.980       
43C       1735.700       7224.200       
43I       1735.700       7224.200       
44C       1645.680       7265.070       
45C       1548.160       7315.990       
46C       1491.400       7345.580       
46I       1491.400       7345.580       
47C       1427.550       7377.920       
47I       1427.550       7377.920       
48C       1364.270       7411.310       
49C       1300.920       7444.200       
50C       1237.380       7477.060       
50I       1237.380       7477.060       
51C       1155.710       7519.680       
52C       1072.140       7561.270       
53C       1004.440       7596.190       
54I       2090.900       6933.350       
54Ib      2090.900       6933.350       
55C       2013.310       6965.140       
56C       1954.280       7002.500       
56I       1954.280       7002.500       
57C       1882.860       7032.930       
57I       1882.860       7032.930       
58C       1826.730       7064.100       
58I       1826.730       7064.100       
59C       1746.820       7099.010       
59I       1746.820       7099.010       
60C       1686.220       7129.440       
60I       1686.220       7129.440       
61C       1599.010       7175.990       
62C       1508.100       7223.400       
62I       1508.100       7223.400       
63C       1456.740       7260.950       
63I       1456.740       7260.950       
64C       1381.430       7289.200       
64I       1381.430       7289.200       
65C       1318.170       7322.350       
65I       1318.170       7322.350       
66C       1254.730       7355.180       
66I       1254.730       7355.180       
67C       1191.380       7388.100       
68C       1109.340       7429.940       
69C       962.530        7514.740       
70C       2056.960       6866.810       
71C       2002.760       6889.270       
71I       2002.760       6889.270       
72C       1920.350       6933.780       
72I       1920.350       6933.780       
73C       1832.900       6975.880       
73I       1832.900       6975.880       
74C       1728.080       7031.720       
75C       1649.080       7068.520       
75I       1649.080       7068.520       
76C       1559.390       7112.630       
76I       1559.390       7112.630       
77C       1471.370       7158.010       
77I       1471.370       7158.010       
78C       1393.920       7198.280       
79C       1305.240       7244.350       
80C       1230.890       7282.920       
81C       1155.260       7322.230       
81I       1155.260       7322.230       
81Ib      1155.260       7322.230       
82C       1076.770       7368.030       
82I       1076.770       7368.030       
82Ib      1076.770       7368.030       
83C       992.300        7407.290       
83I       992.300        7407.290       
84C       913.300        7446.360       
84I       913.300        7446.360       
85C       826.810        7493.270       
86C       1958.450       6815.650       
86I       1958.450       6815.650       
87C       1785.750       6898.330       
87I       1785.750       6898.330       
88C       1604.820       6992.610       
89C       1530.580       7035.670       
90C       1434.470       7086.980       
90I       1434.470       7086.980       
91C       1268.270       7173.470       
91I       1268.270       7173.470       
91Ib      1268.270       7173.470       
92C       1116.000       7247.090       
93C       1035.110       7288.280       
94C       955.690        7336.900       
94I       955.690        7336.900       
95C       788.200        7419.130       
96I       1910.250       6726.980       
96Ib      1910.250       6726.980       
97C       1744.420       6812.620       
97I       1744.420       6812.620       
98C       1569.160       6903.750       
98I       1569.160       6903.750       
99C       1475.040       6952.680       
99I       1475.040       6952.680       
100C      1391.340       6997.480       
100I      1391.340       6997.480       
101C      1302.310       7041.850       
102C      1224.800       7082.590       
103C      1071.640       7162.130       
104C      981.540        7207.820       
105C      901.300        7249.350       
106C      831.250        7286.180       
107C      741.360        7334.180       
108C      667.440        7367.240       
109C      584.86         7408.61        

[VERTICES]
;;Link      X-Coord   Y-Coord   
;;--------- --------- ---------
